LAMMPS (7 Aug 2019)
dimension 	3
boundary	p p f
units		lj

atom_style	atomic

########## System setup  ##########
variable 	xsim equal 10.0
variable 	ysim equal 10.0
variable	Lz equal 1.25
variable 	zsim equal 5
variable 	z_buffer equal 1.0

lattice  	fcc 1.0
Lattice spacing in x,y,z = 1.5874 1.5874 1.5874
region 		myregion block 0 ${xsim} 0 ${ysim} 0 ${zsim} units lattice		# Defining region for the entire simulation box
region 		myregion block 0 10 0 ${ysim} 0 ${zsim} units lattice		
region 		myregion block 0 10 0 10 0 ${zsim} units lattice		
region 		myregion block 0 10 0 10 0 5 units lattice		
create_box	3 myregion			# Creating the simulation box
Created orthogonal box = (0 0 0) to (15.874 15.874 7.93701)
  2 by 2 by 2 MPI processor grid

create_atoms 	1 region myregion 			# Creating bottom wall with a fcc lattice density of 1.0
Created 2000 atoms
  create_atoms CPU = 0.000459777 secs

#region		flow block  INF INF INF INF -${Lz} ${Lz} units lattice		# Defining region for the fluid particles
region		wall1 block INF INF INF INF INF 0.5 units lattice	# Defining region for the bottom wall particles
group 		bot region wall1
400 atoms in group bot
region		wall2 block INF INF INF INF 4.0 INF units lattice		# Defining region for the top wall particles
group		top region wall2
400 atoms in group top

group 		walls union bot top
800 atoms in group walls
group 		fluid subtract all walls
1200 atoms in group fluid

#group 		fluid region flow

set 		group fluid type 1
  1200 settings made for type
set 		group bot type 2
  400 settings made for type
set 		group top type 3
  400 settings made for type
#create_atoms	1 random 1000 87183 fluid	# Creating fluid particles with a density of 0.5


#create_atoms 	2 region wall1			# Creating bottom wall with a fcc lattice density of 1.0
#create_atoms 	3 region wall2			# Creating top wall with a fcc lattice density of 1.0

mass 		1 1.0
mass 		2 1.0
mass 		3 1.0

write_data 	poiseuille.lmpsys
WARNING: Communication cutoff is 0.0. No ghost atoms will be generated. Atoms may get lost. (../comm_brick.cpp:166)

########## Defining groups ##########
group 		system type 1 2 3
2000 atoms in group system

#group           fluid type 1

#group           bot type 2
#group           top type 3
group		wall type 2 3
800 atoms in group wall

########## Interaction potentials ##########
pair_style 	lj/cut 2.5

pair_coeff      1 1 1.0 1.0
pair_coeff      1 2* 1.0 1.0
pair_coeff      2* 2* 0.0 0.0

## OR ##
#pair_coeff 	* * 1.0 1.0

##########  Timestep & minimization  ##########
timestep        0.001
neighbor        1.0 bin
neigh_modify    every 1 delay 0 check yes
neigh_modify    exclude group wall wall

velocity        fluid create 1.0 123456

fix             fxwall wall setforce 0.0 0.0 0.0	# To keep the walls rigid
#minimize        1.0e-6 1.0e-6 1000000 1000000
reset_timestep  0

##########  Thermostating the fluid using Nos'e-Hoover thermostat ##########
fix             fxnvt_fluid fluid nvt temp 1.0 1.0 $(100.0*dt)
fix             fxnvt_fluid fluid nvt temp 1.0 1.0 0.10000000000000000555

compute         wall_temp wall temp
compute         fluid_temp fluid temp

thermo          10
thermo_style    custom step temp c_wall_temp c_fluid_temp ke pe etotal

dump            dmpall  all dcd 50 dump.dcd
dump_modify     dmpall unwrap yes

compute         cChunk fluid chunk/atom bin/1d z 0.0 0.1 units box bound z 0 16.0
fix             fx_vel1 fluid ave/chunk 1 10000 10000 cChunk vx vy vz file ./vel_before.dat

run             10000
Neighbor list info ...
  update every 1 steps, delay 0 steps, check yes
  max neighbors/atom: 2000, page size: 100000
  master list distance cutoff = 3.5
  ghost atom cutoff = 3.5
  binsize = 1.75, bins = 10 10 5
  1 neighbor lists, perpetual/occasional/extra = 1 0 0
  (1) pair lj/cut, perpetual
      attributes: half, newton on
      pair build: half/bin/atomonly/newton
      stencil: half/bin/3d/newton
      bin: standard
Per MPI rank memory allocation (min/avg/max) = 3.473 | 3.474 | 3.475 Mbytes
Step Temp c_wall_temp c_fluid_temp KinEng PotEng TotEng 
       0    0.5997999            0            1      0.89925   -5.2449563   -4.3457063 
      10   0.58694767            0   0.97857246   0.87998129   -5.2558912   -4.3759099 
      20   0.54844009            0   0.91437175    0.8222488   -5.2142899   -4.3920411 
      30     0.485138            0   0.80883308   0.72734314   -5.1233039   -4.3959607 
      40   0.40219265            0   0.67054471   0.60298733    -4.997684   -4.3946967 
      50   0.31185161            0   0.51992608   0.46754353   -4.8567056    -4.389162 
      60   0.23313728            0   0.38869177   0.34953107   -4.7315864   -4.3820553 
      70   0.18400533            0   0.30677786   0.27586999    -4.651797    -4.375927 
      80   0.17093068            0    0.2849795   0.25626782   -4.6269336   -4.3706658 
      90   0.18638468            0   0.31074477   0.27943723   -4.6443482    -4.364911 
     100   0.21646039            0   0.36088768   0.32452825   -4.6819765   -4.3574482 
     110   0.24905384            0   0.41522821   0.37339397   -4.7219585   -4.3485645 
     120   0.27702548            0   0.46186317   0.41533046   -4.7531429   -4.3378125 
     130   0.29788299            0   0.49663728   0.44660107   -4.7724466   -4.3258455 
     140    0.3120946            0    0.5203312   0.46790783   -4.7811505   -4.3132427 
     150   0.32158737            0   0.53615776   0.48213987   -4.7825943   -4.3004544 
     160   0.32888315            0   0.54832145   0.49307806   -4.7798672   -4.2867891 
     170   0.33636136            0   0.56078929   0.50428977   -4.7767796   -4.2724899 
     180   0.34563827            0   0.57625597   0.51819818   -4.7761174   -4.2579192 
     190    0.3574183            0   0.59589589   0.53585938   -4.7789227   -4.2430633 
     200   0.37144682            0   0.61928457   0.55689165   -4.7848492   -4.2279576 
     210   0.38634074            0   0.64411605   0.57922136   -4.7915596   -4.2123383 
     220   0.39982104            0    0.6665907   0.59943169   -4.7958242   -4.1963925 
     230   0.40996542            0   0.68350364   0.61464065   -4.7947507     -4.18011 
     240   0.41648154            0   0.69436746   0.62440994   -4.7873619    -4.162952 
     250   0.42075961            0   0.70149996   0.63082384   -4.7767465   -4.1459227 
     260   0.42471787            0   0.70809927   0.63675827   -4.7660717   -4.1293134 
     270   0.42950402            0   0.71607885   0.64393391   -4.7563332   -4.1123993 
     280   0.43508641            0   0.72538593   0.65230329   -4.7479893    -4.095686 
     290   0.44058174            0   0.73454787   0.66054217   -4.7389332    -4.078391 
     300   0.44494846            0   0.74182817   0.66708898   -4.7281228   -4.0610338 
     310    0.4480526            0   0.74700346   0.67174287   -4.7154596   -4.0437167 
     320   0.45101081            0   0.75193546   0.67617796   -4.7025311   -4.0263531 
     330   0.45517634            0   0.75888031   0.68242312   -4.6915257   -4.0091026 
     340   0.46102695            0   0.76863459   0.69119465   -4.6825668   -3.9913722 
     350   0.46821612            0   0.78062054   0.70197302   -4.6759554   -3.9739824 
     360   0.47645401            0   0.79435493   0.71432367   -4.6704384   -3.9561147 
     370   0.48573592            0   0.80982994   0.72823957   -4.6664827   -3.9382431 
     380   0.49588638            0   0.82675302   0.74345765   -4.6638587   -3.9204011 
     390   0.50541687            0   0.84264247   0.75774624   -4.6599467   -3.9022005 
     400   0.51183647            0   0.85334537   0.76737083   -4.6517697   -3.8843989 
     410   0.51430809            0   0.85746612   0.77107641   -4.6381418   -3.8670654 
     420   0.51457386            0   0.85790921   0.77147486   -4.6211709   -3.8496961 
     430   0.51522636            0   0.85899708   0.77245312   -4.6053598   -3.8329067 
     440   0.51799365            0   0.86361077   0.77660198     -4.59232    -3.815718 
     450   0.52295536            0   0.87188303   0.78404082   -4.5822647   -3.7982239 
     460    0.5288103            0   0.88164453   0.79281884   -4.5742701   -3.7814513 
     470   0.53426991            0   0.89074691   0.80100416   -4.5655983   -3.7645941 
     480   0.53967671            0   0.89976125   0.80911031    -4.556999   -3.7478887 
     490   0.54584469            0   0.91004464   0.81835764    -4.549555   -3.7311974 
     500   0.55260956            0   0.92132319   0.82849988   -4.5430372   -3.7145374 
     510   0.56084916            0   0.93506044    0.8408531   -4.5389715   -3.6981184 
     520    0.5714846            0   0.95279209   0.85679828    -4.538943   -3.6821447 
     530   0.58283685            0   0.97171882   0.87381815   -4.5404422    -3.666624 
     540   0.59253498            0   0.98788777   0.88835807   -4.5401315   -3.6517735 
     550   0.59977914            0   0.99996539   0.89921887   -4.5361977   -3.6369788 
     560   0.60511639            0    1.0088638   0.90722074   -4.5307488   -3.6235281 
     570   0.60969941            0    1.0165047   0.91409184   -4.5253025   -3.6112106 
     580   0.61448571            0    1.0244845    0.9212677   -4.5206342   -3.5993665 
     590   0.61953986            0    1.0329109   0.92884513    -4.516889   -3.5880439 
     600    0.6231081            0      1.03886   0.93419482   -4.5120979   -3.5779031 
     610    0.6230123            0    1.0387002   0.93405119   -4.5031066   -3.5690554 
     620   0.61949229            0    1.0328316   0.92877382   -4.4896287   -3.5608549 
     630   0.61505177            0    1.0254283   0.92211637    -4.475993   -3.5538767 
     640   0.61196065            0    1.0202747   0.91748201   -4.4646708   -3.5471888 
     650   0.61131732            0    1.0192021    0.9165175   -4.4571382   -3.5406207 
     660   0.61468292            0    1.0248133   0.92156337   -4.4562581   -3.5346947 
     670   0.62247539            0    1.0378051   0.93324622   -4.4626956   -3.5294494 
     680   0.63217329            0    1.0539736    0.9477858   -4.4723504   -3.5245646 
     690   0.64114034            0    1.0689237   0.96122965   -4.4814907    -3.520261 
     700   0.64752976            0    1.0795763   0.97080899   -4.4883985   -3.5175895 
     710   0.65043544            0    1.0844207   0.97516533   -4.4917463    -3.516581 
     720    0.6508892            0    1.0851772   0.97584564   -4.4930226    -3.517177 
     730   0.64998898            0    1.0836764   0.97449599   -4.4938605   -3.5193645 
     740    0.6463085            0    1.0775402   0.96897802   -4.4923663   -3.5233883 
     750   0.63773049            0    1.0632387   0.95611743   -4.4851436   -3.5290262 
     760   0.62612309            0    1.0438866   0.93871504    -4.474187   -3.5354719 
     770   0.61597818            0    1.0269728   0.92350529   -4.4661837   -3.5426784 
     780   0.61001778            0    1.0170355   0.91456916     -4.46491   -3.5503408 
     790   0.60738336            0    1.0126433   0.91061951   -4.4680205   -3.5574009 
     800   0.60476686            0     1.008281   0.90669672   -4.4713181   -3.5646214 
     810   0.60068827            0    1.0014811   0.90058188    -4.472401   -3.5718192 
     820   0.59660887            0   0.99467985   0.89446585   -4.4736502   -3.5791843 
     830   0.59481791            0   0.99169392   0.89178075   -4.4785983   -3.5868176 
     840   0.59492288            0   0.99186893   0.89193813   -4.4858189   -3.5938807 
     850   0.59478213            0   0.99163426   0.89172711   -4.4917243   -3.5999972 
     860   0.59419474            0   0.99065495   0.89084646   -4.4970349   -3.6061885 
     870   0.59457236            0   0.99128453   0.89141262   -4.5038675   -3.6124549 
     880   0.59729991            0   0.99583195   0.89550188   -4.5140646   -3.6185627 
     890   0.60144342            0    1.0027401   0.90171404   -4.5262284   -3.6245144 
     900   0.60380038            0    1.0066697   0.90524772   -4.5357585   -3.6305108 
     910   0.60281963            0    1.0050346   0.90377733   -4.5396977   -3.6359204 
     920   0.60018895            0    1.0006486   0.89983329   -4.5415201   -3.6416868 
     930   0.59884821            0   0.99841332   0.89782318   -4.5455226   -3.6476994 
     940   0.59990416            0    1.0001738   0.89940631   -4.5528777   -3.6534713 
     950   0.60150761            0    1.0028471   0.90181029   -4.5610923    -3.659282 
     960   0.60095216            0    1.0019211   0.90097753   -4.5660426   -3.6650651 
     970   0.59698286            0   0.99530337   0.89502655   -4.5657181   -3.6706916 
     980   0.58990808            0   0.98350813   0.88441969   -4.5609324   -3.6765127 
     990   0.58109264            0   0.96881084   0.87120315   -4.5528785   -3.6816753 
    1000   0.57209157            0   0.95380405   0.85770829   -4.5440685   -3.6863602 
    1010    0.5635956            0   0.93963937   0.84497071   -4.5347034   -3.6897327 
    1020   0.55681589            0   0.92833608   0.83480622   -4.5270403   -3.6922341 
    1030   0.55416117            0   0.92391007   0.83082613   -4.5244823   -3.6936562 
    1040   0.55619392            0   0.92729913   0.83387374    -4.527749   -3.6938752 
    1050   0.56072919            0   0.93486043   0.84067324   -4.5332682    -3.692595 
    1060   0.56571095            0   0.94316613   0.84814214   -4.5384869   -3.6903448 
    1070   0.57148827            0   0.95279821   0.85680379   -4.5437284   -3.6869247 
    1080   0.57869747            0   0.96481755   0.86761218   -4.5500742   -3.6824621 
    1090    0.5853504            0   0.97590946   0.87758658   -4.5551192   -3.6775326 
    1100   0.58850593            0   0.98117044   0.88231752    -4.555013   -3.6726955 
    1110   0.58830187            0   0.98083023   0.88201158   -4.5492477   -3.6672361 
    1120   0.58803182            0   0.98037998    0.8816067   -4.5428686   -3.6612619 
    1130   0.58962215            0   0.98303143   0.88399102   -4.5391059   -3.6551149 
    1140   0.59148108            0   0.98613067   0.88677801   -4.5357718   -3.6489938 
    1150   0.59216369            0   0.98726873   0.88780141   -4.5304865   -3.6426851 
    1160   0.59240961            0   0.98767874   0.88817011    -4.524051   -3.6358809 
    1170   0.59376134            0   0.98993238   0.89019669   -4.5197304   -3.6295337 
    1180   0.59806189            0   0.99710236    0.8966443   -4.5193297   -3.6226854 
    1190   0.60536523            0    1.0092787   0.90759383   -4.5233609   -3.6157671 
    1200   0.61248808            0     1.021154   0.91827276   -4.5270906   -3.6088179 
    1210   0.61784226            0    1.0300806   0.92630001   -4.5289585   -3.6026585 
    1220   0.62268708            0     1.038158   0.93356361   -4.5307316    -3.597168 
    1230   0.62705402            0    1.0454387   0.94011074   -4.5325724   -3.5924617 
    1240   0.62944517            0    1.0494253   0.94369567   -4.5320391   -3.5883435 
    1250   0.62827528            0    1.0474748   0.94194172   -4.5274033   -3.5854616 
    1260   0.62312635            0    1.0388904   0.93422219    -4.517403   -3.5831809 
    1270   0.61554628            0    1.0262527   0.92285776   -4.5046465   -3.5817887 
    1280   0.60947694            0    1.0161338    0.9137583   -4.4945184   -3.5807601 
    1290   0.60755104            0    1.0129229    0.9108709    -4.490817   -3.5799461 
    1300   0.60899898            0    1.0153369   0.91304172   -4.4926859   -3.5796442 
    1310   0.61218179            0    1.0206434   0.91781355   -4.4972907   -3.5794772 
    1320     0.615606            0    1.0263523   0.92294729   -4.5026289   -3.5796817 
    1330   0.61721205            0    1.0290299   0.92535517   -4.5056126   -3.5802575 
    1340   0.61512841            0     1.025556   0.92223127   -4.5038841   -3.5816528 
    1350   0.61054704            0    1.0179179   0.91536265   -4.4986171   -3.5832544 
    1360    0.6066079            0    1.0113505    0.9094569   -4.4942451   -3.5847882 
    1370   0.60526169            0     1.009106   0.90743859   -4.4946721   -3.5872335 
    1380   0.60689642            0    1.0118315   0.90988946    -4.499006   -3.5891165 
    1390    0.6098392            0    1.0167377   0.91430142   -4.5059849   -3.5916835 
    1400   0.61057462            0    1.0179639     0.915404   -4.5097763   -3.5943723 
    1410   0.60756229            0    1.0129416   0.91088776   -4.5083174   -3.5974297 
    1420   0.60184325            0    1.0034067    0.9023135   -4.5033617   -3.6010482 
    1430      0.59527            0   0.99244765   0.89245855   -4.4970625   -3.6046039 
    1440   0.59015625            0   0.98392189   0.88479176   -4.4925705   -3.6077788 
    1450   0.58845747            0   0.98108964   0.88224486   -4.4926658    -3.610421 
    1460   0.59038268            0    0.9842994   0.88513124   -4.4979858   -3.6128545 
    1470   0.59440325            0   0.99100259   0.89115908      -4.5065   -3.6153409 
    1480   0.59822296            0   0.99737089   0.89688578   -4.5145553   -3.6176695 
    1490   0.60002531            0    1.0003758   0.89958795   -4.5195966   -3.6200086 
    1500   0.59952541            0   0.99954236   0.89883846   -4.5205709   -3.6217324 
    1510   0.59870004            0   0.99816629   0.89760104   -4.5217833   -3.6241822 
    1520   0.59947367            0    0.9994561   0.89876089   -4.5254947   -3.6267338 
    1530    0.6009989            0     1.001999    0.9010476   -4.5299591   -3.6289115 
    1540   0.60174922            0      1.00325   0.90217252   -4.5331969   -3.6310244 
    1550   0.60125871            0    1.0024322   0.90143712    -4.534879   -3.6334419 
    1560   0.60006255            0    1.0004379   0.89964378   -4.5355292   -3.6358854 
    1570   0.59899552            0   0.99865892   0.89804403   -4.5365369   -3.6384928 
    1580   0.59802696            0   0.99704412   0.89659192   -4.5369607   -3.6403688 
    1590   0.59562524            0   0.99303991   0.89299114   -4.5356746   -3.6426835 
    1600   0.59067696            0   0.98479002   0.88557243   -4.5306489   -3.6450765 
    1610   0.58415521            0   0.97391681    0.8757947   -4.5228202   -3.6470255 
    1620   0.57808028            0   0.96378856   0.86668686   -4.5150617   -3.6483748 
    1630   0.57429088            0   0.95747078    0.8610056   -4.5102011   -3.6491955 
    1640   0.57330233            0   0.95582265   0.85952352   -4.5088237   -3.6493002 
    1650   0.57360953            0   0.95633482   0.85998409    -4.508582   -3.6485979 
    1660   0.57366527            0   0.95642775   0.86006766   -4.5072852   -3.6472175 
    1670   0.57399215            0   0.95697274   0.86055774   -4.5052796   -3.6447218 
    1680   0.57594308            0   0.96022536   0.86348266   -4.5049719   -3.6414892 
    1690   0.58025064            0   0.96740703   0.86994077   -4.5077608     -3.63782 
    1700   0.58742138            0   0.97936225   0.88069151   -4.5143298   -3.6336383 
    1710   0.59677744            0   0.99496089   0.89471858   -4.5237645   -3.6290459 
    1720    0.6050164            0    1.0086971   0.90707084   -4.5311731   -3.6241022 
    1730   0.60890445            0    1.0151793       0.9129   -4.5322594   -3.6193594 
    1740    0.6093063            0    1.0158493   0.91350248   -4.5279829   -3.6144805 
    1750   0.60976221            0    1.0166094   0.91418599   -4.5243225   -3.6101365 
    1760   0.61132537            0    1.0192155   0.91652956   -4.5231302   -3.6066007 
    1770   0.61248913            0    1.0211558   0.91827433    -4.521379   -3.6031047 
    1780   0.61270214            0    1.0215109   0.91859369   -4.5183101   -3.5997164 
    1790   0.61290245            0    1.0218449     0.918894   -4.5160906   -3.5971966 
    1800   0.61327018            0     1.022458   0.91944532   -4.5147819   -3.5953365 
    1810   0.61305921            0    1.0221062   0.91912902   -4.5123009   -3.5931719 
    1820   0.61226897            0    1.0207887   0.91794426   -4.5100382   -3.5920939 
    1830   0.61101841            0    1.0187037   0.91606935   -4.5073247   -3.5912554 
    1840   0.60914002            0    1.0155721   0.91325317   -4.5038709   -3.5906177 
    1850   0.60582512            0    1.0100454   0.90828331   -4.4983331   -3.5900498 
    1860   0.60023601            0    1.0007271   0.89990384   -4.4893222   -3.5894183 
    1870   0.59466899            0   0.99144564   0.89155749   -4.4807155    -3.589158 
    1880   0.59335772            0   0.98925946   0.88959157   -4.4785219   -3.5889304 
    1890    0.5976651            0   0.99644081    0.8960494   -4.4844016   -3.5883522 
    1900   0.60647968            0    1.0111367   0.90926466   -4.4967751   -3.5875104 
    1910    0.6166803            0    1.0281434   0.92455794   -4.5114885   -3.5869306 
    1920   0.62398612            0    1.0403238   0.93551119   -4.5227115   -3.5872003 
    1930   0.62624768            0    1.0440943   0.93890183   -4.5269171   -3.5880153 
    1940   0.62464827            0    1.0414278   0.93650392   -4.5259953   -3.5894914 
    1950   0.62016553            0     1.033954   0.92978317   -4.5219234   -3.5921402 
    1960    0.6141446            0    1.0239158   0.92075629   -4.5157108   -3.5949545 
    1970   0.60957697            0    1.0163006   0.91390828   -4.5128237   -3.5989155 
    1980   0.60660943            0     1.011353   0.90945919   -4.5118798   -3.6024206 
    1990   0.60318334            0     1.005641   0.90432263   -4.5107501   -3.6064275 
    2000   0.59861224            0    0.9980199    0.8974694   -4.5077966   -3.6103272 
    2010   0.59435443            0   0.99092118   0.89108587   -4.5050457   -3.6139598 
    2020   0.59164356            0   0.98640157   0.88702161   -4.5051324   -3.6181108 
    2030    0.5898113            0   0.98334677   0.88427458   -4.5054179   -3.6211433 
    2040   0.58792192            0   0.98019676   0.88144194   -4.5060065   -3.6245646 
    2050    0.5859377            0   0.97688863    0.8784671   -4.5057335   -3.6272664 
    2060   0.58361562            0    0.9730172   0.87498572    -4.504172   -3.6291863 
    2070   0.58130739            0   0.96916887    0.8715251   -4.5024388   -3.6309137 
    2080   0.58064825            0   0.96806994   0.87053689   -4.5027822   -3.6322453 
    2090   0.58374295            0    0.9732295   0.87517662   -4.5079695   -3.6327929 
    2100   0.59109025            0   0.98547908   0.88619206   -4.5191997   -3.6330076 
    2110    0.5999949            0    1.0003251   0.89954235   -4.5329306   -3.6333883 
    2120   0.60712137            0    1.0122065   0.91022671   -4.5439006   -3.6336739 
    2130   0.60998585            0    1.0169822   0.91452129   -4.5487654   -3.6342441 
    2140    0.6082608            0    1.0141062   0.91193501   -4.5465827   -3.6346477 
    2150   0.60425469            0    1.0074271   0.90592885   -4.5415008   -3.6355719 
    2160    0.6004323            0    1.0010544   0.90019813   -4.5365613   -3.6363632 
    2170   0.59789732            0   0.99682797   0.89639755   -4.5338292   -3.6374316 
    2180   0.59628948            0   0.99414735   0.89398701   -4.5319383   -3.6379513 
    2190   0.59401889            0   0.99036177   0.89058282   -4.5298625   -3.6392797 
    2200   0.59054966            0   0.98457778   0.88538157   -4.5254778   -3.6400962 
    2210   0.58756041            0   0.97959404   0.88089994   -4.5211982   -3.6402983 
    2220   0.58665516            0   0.97808479   0.87954275   -4.5197077    -3.640165 
    2230   0.58776133            0   0.97992903   0.88120118   -4.5210149   -3.6398137 
    2240   0.59010153            0   0.98383066   0.88470972   -4.5239064   -3.6391967 
    2250   0.59225295            0   0.98741756   0.88793524   -4.5263101   -3.6383748 
    2260   0.59293973            0   0.98856257   0.88896489   -4.5259122   -3.6369473 
    2270   0.59264271            0   0.98806737   0.88851958   -4.5239879   -3.6354683 
    2280   0.59330701            0   0.98917491   0.88951553   -4.5232643   -3.6337488 
    2290   0.59565026            0   0.99308162   0.89302865   -4.5251707    -3.632142 
    2300   0.59707443            0   0.99545604   0.89516384   -4.5251895   -3.6300257 
    2310   0.59596974            0   0.99361427   0.89350764   -4.5213331   -3.6278255 
    2320   0.59409008            0   0.99048047   0.89068956   -4.5164924   -3.6258029 
    2330   0.59265749            0   0.98809201   0.88854174   -4.5121136   -3.6235718 
    2340   0.59194537            0   0.98690475   0.88747409   -4.5083987   -3.6209246 
    2350   0.59264254            0   0.98806709   0.88851933   -4.5066624    -3.618143 
    2360   0.59466036            0   0.99143125   0.89154455   -4.5063867   -3.6148421 
    2370   0.59771477            0   0.99652363   0.89612387   -4.5076633   -3.6115395 
    2380   0.60273035            0    1.0048857   0.90364347    -4.511968   -3.6083245 
    2390   0.61006905            0     1.017121   0.91464602   -4.5201174   -3.6054714 
    2400   0.61733564            0     1.029236   0.92554045   -4.5280138   -3.6024733 
    2410   0.62069141            0    1.0348308   0.93057159   -4.5308101   -3.6002385 
    2420   0.61882315            0     1.031716   0.92777061   -4.5260295   -3.5982589 
    2430    0.6138209            0    1.0233761   0.92027099   -4.5177364   -3.5974654 
    2440    0.6084426            0    1.0144093   0.91220757   -4.5085544   -3.5963469 
    2450   0.60477281            0    1.0082909   0.90670563   -4.5024886    -3.595783 
    2460   0.60452396            0    1.0078761   0.90633255   -4.5017908   -3.5954582 
    2470   0.60866785            0    1.0147848   0.91254527   -4.5081191   -3.5955739 
    2480   0.61520289            0    1.0256802   0.92234293   -4.5179358   -3.5955929 
    2490   0.61906549            0      1.03212   0.92813394   -4.5244019    -3.596268 
    2500   0.61693346            0    1.0285655   0.92493749   -4.5219968   -3.5970593 
    2510   0.61042926            0    1.0177215   0.91518607   -4.5138253   -3.5986393 
    2520   0.60478816            0    1.0083165   0.90672864    -4.507326   -3.6005974 
    2530    0.6026273            0    1.0047139   0.90348898   -4.5061591   -3.6026701 
    2540   0.60162293            0    1.0030394   0.90198318   -4.5068985   -3.6049153 
    2550   0.60105978            0    1.0021005   0.90113888   -4.5085747   -3.6074358 
    2560   0.60361679            0    1.0063636   0.90497247   -4.5145082   -3.6095357 
    2570   0.60916085            0    1.0156068    0.9132844   -4.5250636   -3.6117792 
    2580   0.61411756            0    1.0238707   0.92071574   -4.5351166   -3.6144009 
    2590    0.6165404            0    1.0279101    0.9243482   -4.5420675   -3.6177193 
    2600   0.61678632            0    1.0283201   0.92471689   -4.5460452   -3.6213283 
    2610   0.61352623            0    1.0228848    0.9198292   -4.5449836   -3.6251544 
    2620   0.60454242            0    1.0079068   0.90636022   -4.5356618   -3.6293016 
    2630   0.59125103            0   0.98574713   0.88643311   -4.5204124   -3.6339793 
    2640   0.57791284            0   0.96350939   0.86643582   -4.5049053   -3.6384695 
    2650   0.56886399            0   0.94842295   0.85286934   -4.4947208   -3.6418514 
    2660   0.56719807            0   0.94564548    0.8503717   -4.4950506   -3.6446789 
    2670   0.57192515            0   0.95352658   0.85745878   -4.5041923   -3.6467335 
    2680   0.57907318            0   0.96544393   0.86817546    -4.516149   -3.6479735 
    2690   0.58460617            0   0.97466867    0.8764708   -4.5247132   -3.6482424 
    2700   0.58723578            0   0.97905282   0.88041325   -4.5281761   -3.6477629 
    2710   0.58894762            0   0.98190684   0.88297972   -4.5304584   -3.6474787 
    2720   0.59196665            0   0.98694023     0.887506   -4.5338559   -3.6463499 
    2730   0.59593618            0   0.99355832   0.89345732   -4.5388364   -3.6453791 
    2740   0.59867735            0   0.99812845   0.89756701   -4.5415864   -3.6440193 
    2750   0.59902817            0   0.99871335   0.89809298   -4.5405262   -3.6424332 
    2760   0.59756979            0    0.9962819    0.8959065   -4.5370748   -3.6411683 
    2770   0.59569342            0   0.99315358   0.89309336   -4.5329062   -3.6398129 
    2780    0.5952384            0   0.99239497   0.89241118    -4.530693   -3.6382818 
    2790     0.597344            0   0.99590546   0.89556799   -4.5322112   -3.6366432 
    2800   0.60075638            0    1.0015947     0.900684   -4.5354754   -3.6347914 
    2810   0.60397858            0    1.0069668   0.90551489   -4.5383445   -3.6328296 
    2820   0.60678596            0    1.0116473   0.90972386   -4.5405103   -3.6307865 
    2830    0.6087375            0     1.014901    0.9126497   -4.5420914   -3.6294417 
    2840   0.60903661            0    1.0153997   0.91309814   -4.5410656   -3.6279674 
    2850   0.60781804            0     1.013368   0.91127119   -4.5382282    -3.626957 
    2860    0.6061966            0    1.0106647   0.90884026   -4.5352206   -3.6263803 
    2870   0.60465191            0    1.0080894   0.90652438   -4.5322177   -3.6256933 
    2880    0.6022202            0    1.0040352   0.90287863     -4.52805   -3.6251713 
    2890   0.59874263            0   0.99823729   0.89766488   -4.5227706   -3.6251057 
    2900   0.59620079            0   0.99399948   0.89385403   -4.5186288   -3.6247747 
    2910   0.59513593            0   0.99222412   0.89225754   -4.5165231   -3.6242656 
    2920   0.59455565            0   0.99125667   0.89138756   -4.5149831   -3.6235955 
    2930   0.59391471            0   0.99018807   0.89042662   -4.5134746   -3.6230479 
    2940   0.59313671            0   0.98889099   0.88926022   -4.5111767   -3.6219165 
    2950    0.5934042            0   0.98933694   0.88966124   -4.5104528   -3.6207916 
    2960   0.59549106            0   0.99281621   0.89278998   -4.5125931   -3.6198031 
    2970   0.59796724            0   0.99694455   0.89650239   -4.5149667   -3.6184643 
    2980   0.59893062            0   0.99855071   0.89794673   -4.5151143   -3.6171676 
    2990   0.59845215            0     0.997753   0.89722939   -4.5125494     -3.61532 
    3000   0.59780957            0   0.99668168     0.896266   -4.5097836   -3.6135176 
    3010   0.59803333            0   0.99705474   0.89660147   -4.5082621   -3.6116606 
    3020   0.59974569            0   0.99990962   0.89916872   -4.5085543   -3.6093856 
    3030    0.6036738            0    1.0064587   0.90505795   -4.5129478   -3.6078898 
    3040   0.61031508            0    1.0175311   0.91501488   -4.5209012   -3.6058863 
    3050   0.61790671            0    1.0301881   0.92639663    -4.530686   -3.6042893 
    3060   0.62336148            0    1.0392824    0.9345747   -4.5381046   -3.6035299 
    3070   0.62484913            0    1.0417627   0.93680507    -4.540476    -3.603671 
    3080   0.62159375            0    1.0363352   0.93192443   -4.5360983   -3.6041738 
    3090   0.61406345            0    1.0237805   0.92063463   -4.5257563   -3.6051217 
    3100   0.60566506            0    1.0097785   0.90804334   -4.5148746   -3.6068312 
    3110   0.59860683            0   0.99801088   0.89746129    -4.506175   -3.6087137 
    3120   0.59305174            0   0.98874931   0.88913282    -4.499194   -3.6100611 
    3130   0.59152653            0   0.98620645   0.88684615   -4.4982826   -3.6114365 
    3140   0.59601382            0   0.99368775   0.89357371   -4.5065314   -3.6129577 
    3150   0.60372481            0    1.0065437   0.90513442   -4.5196694   -3.6145349 
    3160   0.61045498            0    1.0177644   0.91522464   -4.5314663   -3.6162416 
    3170   0.61496522            0     1.025284    0.9219866   -4.5403025   -3.6183159 
    3180   0.61795121            0    1.0302623   0.92646335   -4.5469113   -3.6204479 
    3190   0.61866115            0    1.0314459   0.92752774   -4.5510875   -3.6235598 
    3200   0.61477228            0    1.0249623   0.92169735   -4.5484487   -3.6267513 
    3210   0.60642128            0    1.0110393   0.90917711   -4.5400978   -3.6309207 
    3220   0.59747081            0   0.99611688   0.89575811   -4.5307762   -3.6350181 
    3230   0.59130088            0   0.98583024   0.88650784   -4.5254164   -3.6389085 
    3240   0.58754465            0   0.97956776   0.88087631   -4.5228269   -3.6419506 
    3250   0.58401419            0    0.9736817   0.87558327   -4.5207182   -3.6451349 
    3260   0.58023129            0   0.96737478   0.86991177   -4.5178755   -3.6479637 
    3270   0.57793848            0   0.96355215   0.86647427   -4.5165792    -3.650105 
    3280   0.57812585            0   0.96386454   0.86675518   -4.5185892    -3.651834 
    3290   0.58044927            0    0.9677382   0.87023857   -4.5231244   -3.6528859 
    3300   0.58449151            0    0.9744775   0.87629889   -4.5294027   -3.6531038 
    3310   0.59000679            0   0.98367271   0.88456769   -4.5375945   -3.6530268 
    3320   0.59594556            0   0.99357396   0.89347139   -4.5461678   -3.6526964 
    3330   0.59951474            0   0.99952458   0.89882248   -4.5511028   -3.6522803 
    3340   0.59834712            0   0.99757789   0.89707192   -4.5484276   -3.6513557 
    3350   0.59219247            0   0.98731672   0.88784456   -4.5386257   -3.6507811 
    3360   0.58280178            0   0.97166035   0.87376557   -4.5234395    -3.649674 
    3370   0.57332141            0   0.95585447   0.85955213   -4.5076612    -3.648109 
    3380   0.56766162            0   0.94641833   0.85106668    -4.496796   -3.6457294 
    3390   0.56824481            0   0.94739063   0.85194103   -4.4941884   -3.6422474 
    3400   0.57402233            0   0.95702305   0.86060298   -4.4991532   -3.6385502 
    3410   0.58257538            0   0.97128288   0.87342613   -4.5072606   -3.6338345 
    3420   0.59115743            0   0.98559108   0.88629278   -4.5148118    -3.628519 
    3430   0.59850237            0   0.99783674   0.89730468   -4.5204686   -3.6231639 
    3440   0.60441822            0    1.0076998   0.90617401   -4.5240013   -3.6178273 
    3450   0.60752965            0    1.0128872   0.91083883   -4.5234836   -3.6126447 
    3460   0.60830972            0    1.0141878   0.91200835   -4.5198716   -3.6078632 
    3470   0.60912833            0    1.0155526   0.91323565    -4.516745   -3.6035093 
    3480   0.61087993            0    1.0184729   0.91586174    -4.515492   -3.5996302 
    3490   0.61425677            0    1.0241028   0.92092447   -4.5174137   -3.5964893 
    3500   0.62006202            0    1.0337815   0.92962798   -4.5235505   -3.5939225 
    3510   0.62760668            0    1.0463601   0.94093931   -4.5327712   -3.5918319 
    3520   0.63387297            0    1.0568074   0.95033405   -4.5407111    -3.590377 
    3530   0.63403972            0    1.0570854   0.95058404    -4.540797   -3.5902129 
    3540   0.62578323            0      1.04332   0.93820551   -4.5293999   -3.5911943 
    3550    0.6126972            0    1.0215027   0.91858627   -4.5114974   -3.5929111 
    3560   0.60219579            0    1.0039945   0.90284203   -4.4975539   -3.5947119 
    3570   0.59901658            0   0.99869403   0.89807561   -4.4948162   -3.5967406 
    3580   0.60188169            0    1.0034708   0.90237112   -4.5013068   -3.5989357 
    3590   0.60671181            0    1.0115237   0.90961268   -4.5111038   -3.6014911 
    3600   0.61041508            0    1.0176979   0.91516481   -4.5193663   -3.6042015 
    3610   0.61069998            0    1.0181729   0.91559195   -4.5228416   -3.6072496 
    3620   0.60706214            0    1.0121078   0.91013791    -4.521085   -3.6109471 
    3630   0.60177837            0    1.0032985   0.90221622   -4.5164165   -3.6142003 
    3640   0.59703207            0    0.9953854   0.89510032   -4.5128777   -3.6177774 
    3650   0.59162828            0    0.9863761   0.88699871   -4.5080686   -3.6210699 
    3660   0.58583972            0   0.97672527    0.8783202   -4.5023512    -3.624031 
    3670   0.58453765            0   0.97455444   0.87636808   -4.5031864   -3.6268183 
    3680    0.5895266            0   0.98287213   0.88384776   -4.5128617    -3.629014 
    3690   0.59616747            0   0.99394393   0.89380408   -4.5248554   -3.6310513 
    3700   0.59940602            0   0.99934332   0.89865948   -4.5316821   -3.6330226 
    3710   0.59769872            0   0.99649686    0.8960998    -4.531179   -3.6350792 
    3720   0.59306657            0   0.98877404   0.88915506   -4.5257972   -3.6366421 
    3730   0.58923138            0   0.98237993   0.88340515   -4.5218013   -3.6383962 
    3740    0.5892757            0   0.98245382   0.88347159   -4.5233641   -3.6398925 
    3750    0.5921459            0   0.98723908   0.88777475   -4.5283844   -3.6406096 
    3760    0.5936053            0   0.98967222   0.88996274   -4.5317598   -3.6417971 
    3770   0.59187016            0   0.98677936   0.88736134   -4.5300987   -3.6427373 
    3780   0.58817334            0   0.98061593   0.88181888   -4.5256241   -3.6438052 
    3790   0.58418898            0   0.97397312   0.87584533    -4.520033   -3.6441876 
    3800    0.5813039            0   0.96916305   0.87151987   -4.5155043   -3.6439844 
    3810   0.58006918            0    0.9671045   0.86966872    -4.513104   -3.6434352 
    3820   0.58008765            0   0.96713529   0.86969641    -4.512028   -3.6423316 
    3830   0.58124808            0   0.96906998   0.87143618   -4.5116649   -3.6402287 
    3840   0.58303155            0   0.97204343   0.87411006    -4.511338    -3.637228 
    3850   0.58441061            0   0.97434262    0.8761776   -4.5099003   -3.6337227 
    3860   0.58544874            0   0.97607342   0.87773403   -4.5069027   -3.6291686 
    3870   0.58819048            0    0.9806445   0.88184457   -4.5063418   -3.6244972 
    3880   0.59459247            0   0.99131805   0.89144275   -4.5104325   -3.6189898 
    3890   0.60402228            0    1.0070396    0.9055804   -4.5187862   -3.6132058 
    3900   0.61407617            0    1.0238017    0.9206537   -4.5282112   -3.6075575 
    3910   0.62296546            0    1.0386221   0.93398097   -4.5360385   -3.6020575 
    3920   0.62856023            0    1.0479499   0.94236892   -4.5398343   -3.5974653 
    3930   0.62817846            0    1.0473134   0.94179655    -4.536017   -3.5942204 
    3940   0.62204025            0    1.0370796   0.93259384   -4.5250623   -3.5924685 
    3950   0.61386402            0     1.023448   0.92033564   -4.5116832   -3.5913476 
    3960   0.60721995            0    1.0123709   0.91037451   -4.5009004   -3.5905259 
    3970   0.60372923            0    1.0065511   0.90514105   -4.4953673   -3.5902263 
    3980   0.60422093            0    1.0073708   0.90587823   -4.4955434   -3.5896652 
    3990   0.60806603            0    1.0137815     0.911643   -4.5008629   -3.5892199 
    4000   0.61302501            0    1.0220492   0.91907774   -4.5083548    -3.589277 
    4010   0.61657229            0    1.0279633   0.92439601   -4.5138872   -3.5894912 
    4020   0.61793947            0    1.0302427   0.92644575   -4.5171435   -3.5906977 
    4030     0.617429            0    1.0293916   0.92568043   -4.5177602   -3.5920798 
    4040   0.61474289            0    1.0249133   0.92165327   -4.5154643    -3.593811 
    4050   0.60889574            0    1.0151648   0.91288694   -4.5090717   -3.5961847 
    4060   0.60055046            0    1.0012513   0.90037527   -4.4988548   -3.5984795 
    4070   0.59282632            0   0.98837348   0.88879485    -4.489817   -3.6010222 
    4080   0.58830935            0   0.98084269   0.88202279   -4.4855643   -3.6035415 
    4090    0.5872803            0   0.97912704   0.88047999   -4.4860898   -3.6056098 
    4100   0.58929523            0   0.98248637   0.88350087   -4.4906621   -3.6071612 
    4110   0.59374984            0   0.98991321   0.89017945   -4.4990128   -3.6088333 
    4120    0.6000029            0    1.0003384   0.89955435   -4.5099096   -3.6103552 
    4130   0.60711691            0    1.0121991   0.91022002   -4.5220481   -3.6118281 
    4140    0.6128896            0    1.0218234   0.91887474   -4.5323354   -3.6134606 
    4150   0.61473275            0    1.0248964   0.92163808   -4.5371199   -3.6154818 
    4160   0.61201998            0    1.0203736   0.91757095   -4.5362104   -3.6186394 
    4170   0.60707014            0    1.0121211   0.91014991   -4.5327198   -3.6225699 
    4180    0.6025679            0    1.0046149   0.90339992   -4.5307161   -3.6273162 
    4190   0.59911504            0   0.99885819   0.89822322   -4.5310831   -3.6328599 
    4200   0.59552576            0   0.99287406     0.892842    -4.532529    -3.639687 
    4210   0.59021821            0   0.98402519   0.88488465   -4.5324593   -3.6475747 
    4220   0.58310837            0    0.9721715   0.87422522   -4.5300937   -3.6558685 
    4230   0.57595485            0     0.960245   0.86350031   -4.5275975   -3.6640972 
    4240   0.56981958            0   0.95001613     0.854302   -4.5261126   -3.6718106 
    4250    0.5648206            0   0.94168172   0.84680729   -4.5249628   -3.6781555 
    4260   0.56173913            0   0.93654421   0.84218738   -4.5248048   -3.6826174 
    4270   0.56153496            0   0.93620382   0.84188129   -4.5275053    -3.685624 
    4280   0.56412681            0   0.94052501   0.84576712    -4.532795   -3.6870279 
    4290   0.56849601            0   0.94780945   0.85231765   -4.5397191   -3.6874015 
    4300   0.57332748            0   0.95586458   0.85956122   -4.5465342   -3.6869729 
    4310   0.57789863            0    0.9634857   0.86641452   -4.5526657   -3.6862512 
    4320   0.58231215            0   0.97084403    0.8730315   -4.5580601   -3.6850286 
    4330   0.58634036            0   0.97755995   0.87907078   -4.5624731   -3.6834023 
    4340   0.58799046            0   0.98031103    0.8815447   -4.5633979   -3.6818532 
    4350   0.58538736            0   0.97597109     0.877642   -4.5576134   -3.6799714 
    4360   0.57995804            0   0.96691919   0.86950208    -4.547409   -3.6779069 
    4370   0.57572343            0   0.95985917   0.86315336   -4.5387085   -3.6755551 
    4380   0.57542695            0   0.95936487   0.86270886     -4.53578   -3.6730712 
    4390   0.57792209            0   0.96352483    0.8664497   -4.5366173   -3.6701676 
    4400   0.57916551            0   0.96559788    0.8683139   -4.5345468   -3.6662329 
    4410   0.57707328            0   0.96210967   0.86517712   -4.5276566   -3.6624795 
    4420   0.57427179            0   0.95743896   0.86097698   -4.5196363   -3.6586593 
    4430   0.57455329            0   0.95790828   0.86139902   -4.5158223   -3.6544233 
    4440   0.57884942            0   0.96507088   0.86783999   -4.5175912   -3.6497512 
    4450   0.58534036            0   0.97589273   0.87757154   -4.5225165   -3.6449449 
    4460   0.59144337            0   0.98606781   0.88672147   -4.5272342   -3.6405128 
    4470   0.59453095            0   0.99121549   0.89135053   -4.5273736    -3.636023 
    4480   0.59354821            0   0.98957704   0.88987715   -4.5217374   -3.6318603 
    4490   0.59138128            0   0.98596429   0.88662839   -4.5149358   -3.6283074 
    4500   0.59142239            0   0.98603283   0.88669002     -4.51161     -3.62492 
    4510   0.59447788            0   0.99112701   0.89127097     -4.51264    -3.621369 
    4520   0.59883216            0   0.99838656   0.89779912   -4.5157063   -3.6179072 
    4530   0.60218191            0    1.0039713   0.90282123   -4.5173852    -3.614564 
    4540   0.60396755            0    1.0069484   0.90549835   -4.5174762   -3.6119779 
    4550    0.6047697            0    1.0082858   0.90670097   -4.5162755   -3.6095745 
    4560   0.60584985            0    1.0100866   0.90832039   -4.5157322   -3.6074118 
    4570   0.60825003            0    1.0140882   0.91191886   -4.5174128   -3.6054939 
    4580   0.61156331            0    1.0196122   0.91688629     -4.52097   -3.6040837 
    4590    0.6144321            0    1.0243951   0.92118732    -4.523786   -3.6025987 
    4600   0.61592389            0    1.0268823   0.92342389   -4.5253245   -3.6019006 
    4610   0.61789995            0    1.0301768    0.9263865   -4.5283127   -3.6019262 
    4620   0.62211435            0    1.0372032   0.93270494   -4.5350323   -3.6023274 
    4630    0.6268363            0    1.0450757   0.93978432   -4.5432038   -3.6034194 
    4640   0.62945432            0    1.0494405   0.94370939   -4.5490777   -3.6053683 
    4650   0.62855065            0    1.0479339   0.94235456   -4.5507365    -3.608382 
    4660   0.62375706            0    1.0399419   0.93516778   -4.5474379   -3.6122701 
    4670   0.61547443            0    1.0261329   0.92275004   -4.5397191    -3.616969 
    4680   0.60581699            0    1.0100318   0.90827112   -4.5300624   -3.6217913 
    4690    0.5975702            0   0.99628259   0.89590712   -4.5227595   -3.6268524 
    4700   0.59159114            0   0.98631417   0.88694302   -4.5189307   -3.6319877 
    4710   0.58720366            0   0.97899927   0.88036509   -4.5167802   -3.6364151 
    4720   0.58388893            0   0.97347287   0.87539548   -4.5156731   -3.6402776 
    4730   0.58236579            0   0.97093345   0.87311191   -4.5160732   -3.6429613 
    4740   0.58373772            0   0.97322076   0.87516877   -4.5202516   -3.6450828 
    4750    0.5865906            0   0.97797716   0.87944596   -4.5258812   -3.6464352 
    4760   0.58796295            0   0.98026517   0.88150345   -4.5294377   -3.6479342 
    4770   0.58667539            0   0.97811852   0.87957308   -4.5279757   -3.6484026 
    4780   0.58340235            0   0.97266164   0.87466598   -4.5234686   -3.6488027 
    4790   0.57943121            0   0.96604085   0.86871223   -4.5171069   -3.6483947 
    4800   0.57651328            0   0.96117602   0.86433754   -4.5119472   -3.6476096 
    4810   0.57484586            0   0.95839606   0.86183765   -4.5082483   -3.6464107 
    4820   0.57374972            0   0.95656855   0.86019427   -4.5045358   -3.6443415 
    4830   0.57482529            0   0.95836176   0.86180681   -4.5038525   -3.6420457 
    4840   0.57934013            0   0.96588901   0.86857569   -4.5072486   -3.6386729 
    4850   0.58594119            0   0.97689444   0.87847232   -4.5137088   -3.6352364 
    4860   0.59272592            0   0.98820611   0.88864434   -4.5200337   -3.6313894 
    4870   0.59885071            0   0.99841748   0.89782692   -4.5257988   -3.6279719 
    4880   0.60396029            0    1.0069363   0.90548746    -4.530386   -3.6248986 
    4890   0.60770248            0    1.0131754   0.91109794   -4.5334098   -3.6223118 
    4900   0.60928894            0    1.0158204   0.91347645   -4.5334347   -3.6199582 
    4910   0.60748734            0    1.0128167   0.91077539   -4.5294427   -3.6186673 
    4920   0.60220802            0    1.0040149   0.90286037   -4.5205106   -3.6176502 
    4930   0.59681371            0   0.99502135   0.89477295   -4.5115818   -3.6168088 
    4940   0.59595056            0    0.9935823   0.89347888    -4.509271   -3.6157921 
    4950   0.60073903            0    1.0015657   0.90065799   -4.5155478   -3.6148898 
    4960   0.60760533            0    1.0130134   0.91095229   -4.5254274   -3.6144751 
    4970   0.61175635            0    1.0199341    0.9171757   -4.5313591   -3.6141834 
    4980   0.61205449            0    1.0204311    0.9176227   -4.5320538   -3.6144311 
    4990   0.61028633            0    1.0174832   0.91497178   -4.5299212   -3.6149494 
    5000   0.60871083            0    1.0148565   0.91260971   -4.5283025   -3.6156927 
    5010   0.60934399            0    1.0159121   0.91355898   -4.5300363   -3.6164773 
    5020   0.61115973            0    1.0189394   0.91628122   -4.5342748   -3.6179936 
    5030   0.60934013            0    1.0159057    0.9135532   -4.5329413   -3.6193881 
    5040   0.60087677            0    1.0017954   0.90086449    -4.521761   -3.6208965 
    5050   0.58804891            0   0.98040849   0.88163233   -4.5035838   -3.6219514 
    5060   0.57628974            0   0.96080333   0.86400239   -4.4870589   -3.6230565 
    5070   0.57050751            0   0.95116306   0.85533339   -4.4790109   -3.6236775 
    5080   0.57215782            0   0.95391449    0.8578076   -4.4812997   -3.6234921 
    5090   0.57872088            0   0.96485659   0.86764728   -4.4897071   -3.6220598 
    5100   0.58737499            0   0.97928491   0.88062195   -4.5008405   -3.6202185 
    5110   0.59646978            0   0.99444794   0.89425731   -4.5123523    -3.618095 
    5120   0.60489378            0    1.0084926     0.906887    -4.522577     -3.61569 
    5130   0.61136357            0    1.0192792   0.91658683   -4.5300068     -3.61342 
    5140   0.61538176            0    1.0259784    0.9226111   -4.5341837   -3.6115726 
    5150   0.61780927            0    1.0300256   0.92625055   -4.5360412   -3.6097906 
    5160   0.61818653            0    1.0306546   0.92681616   -4.5354645   -3.6086484 
    5170   0.61525312            0     1.025764   0.92241824   -4.5307089   -3.6082907 
    5180   0.60939486            0    1.0159969   0.91363524   -4.5217859   -3.6081507 
    5190     0.603694            0    1.0064923   0.90508822   -4.5132505   -3.6081623 
    5200   0.60228215            0    1.0041385   0.90297151   -4.5115715      -3.6086 
    5210   0.60472202            0    1.0082063   0.90662949   -4.5160483   -3.6094188 
    5220   0.60683223            0    1.0117245   0.90979322   -4.5196535   -3.6098603 
    5230   0.60558914            0     1.009652   0.90792952   -4.5188927   -3.6109632 
    5240   0.60083373            0    1.0017236   0.90079997   -4.5128983   -3.6120983 
    5250    0.5952163            0   0.99235811   0.89237803   -4.5061751    -3.613797 
    5260   0.59144178            0   0.98606516   0.88671909   -4.5030724   -3.6163533 
    5270   0.58972325            0   0.98319997   0.88414258   -4.5031265    -3.618984 
    5280   0.58920541            0   0.98233662   0.88336621   -4.5056292    -3.622263 
    5290   0.58925023            0   0.98241135   0.88343341   -4.5091717   -3.6257383 
    5300   0.58929523            0   0.98248638   0.88350088   -4.5127658   -3.6292649 
    5310   0.58926027            0   0.98242809   0.88344846   -4.5166696   -3.6332212 
    5320   0.58975781            0   0.98325759   0.88419439     -4.52171   -3.6375156 
    5330   0.59057603            0   0.98462176   0.88542111   -4.5272918   -3.6418706 
    5340   0.59065788            0   0.98475821   0.88554382   -4.5315681   -3.6460242 
    5350   0.58999217            0   0.98364832   0.88454575   -4.5345325   -3.6499867 
    5360   0.58883343            0   0.98171645   0.88280852   -4.5369607   -3.6541522 
    5370   0.58747286            0   0.97944808   0.88076869   -4.5389673   -3.6581986 
    5380   0.58697365            0   0.97861578   0.88002024    -4.541994   -3.6619737 
    5390   0.58716571            0   0.97893599   0.88030819   -4.5454603   -3.6651521 
    5400   0.58667242            0   0.97811356   0.87956862   -4.5472986   -3.6677299 
    5410   0.58537144            0   0.97594455   0.87761814    -4.547764   -3.6701459 
    5420   0.58380794            0   0.97333784   0.87527406   -4.5474039   -3.6721299 
    5430   0.58225306            0   0.97074551    0.8729429   -4.5466015   -3.6736586 
    5440   0.58091427            0   0.96851344   0.87093571    -4.545814   -3.6748783 
    5450   0.57991115            0   0.96684102   0.86943179   -4.5446595   -3.6752277 
    5460   0.57908868            0   0.96546979   0.86819871   -4.5433367    -3.675138 
    5470   0.57948361            0   0.96612822    0.8687908   -4.5433004   -3.6745096 
    5480   0.58197873            0   0.97028814   0.87253161    -4.545804   -3.6732724 
    5490   0.58561761            0   0.97635497   0.87798721    -4.549372   -3.6713848 
    5500   0.58950379            0    0.9828341   0.88381356   -4.5529001   -3.6690866 
    5510   0.59279892            0    0.9883278   0.88875378   -4.5550946   -3.6663408 
    5520   0.59429119            0   0.99081575   0.89099107   -4.5538039   -3.6628128 
    5530   0.59423372            0   0.99071994    0.8909049   -4.5499848   -3.6590799 
    5540   0.59442445            0   0.99103793   0.89119086   -4.5460306   -3.6548398 
    5550     0.596628            0   0.99471174   0.89449453   -4.5449178   -3.6504232 
    5560   0.60062233            0    1.0013712   0.90048302   -4.5460426   -3.6455596 
    5570   0.60473949            0    1.0082354   0.90665568   -4.5477106   -3.6410549 
    5580   0.60713455            0    1.0122285   0.91024648   -4.5464527   -3.6362062 
    5590   0.60730178            0    1.0125073   0.91049719   -4.5419244   -3.6314272 
    5600   0.60648427            0    1.0111443   0.90927154   -4.5363386   -3.6270671 
    5610   0.60504644            0    1.0087471   0.90711587   -4.5301775   -3.6230616 
    5620   0.60237805            0    1.0042984   0.90311529   -4.5222615   -3.6191462 
    5630   0.59881135            0   0.99835186   0.89776791   -4.5138266   -3.6160587 
    5640   0.59512209            0   0.99220105    0.8922368   -4.5051503   -3.6129135 
    5650   0.59325267            0   0.98908432   0.88943407   -4.4994001   -3.6099661 
    5660   0.59559286            0   0.99298592   0.89294259   -4.4994742   -3.6065316 
    5670   0.60082565            0    1.0017101   0.90078785   -4.5042872   -3.6034994 
    5680   0.60454997            0    1.0079194   0.90637154   -4.5077205    -3.601349 
    5690   0.60444553            0    1.0077453   0.90621496   -4.5056873   -3.5994724 
    5700   0.60196843            0    1.0036154   0.90250117   -4.5002572    -3.597756 
    5710   0.60008952            0    1.0004829   0.89968421   -4.4956944   -3.5960102 
    5720   0.59945454            0   0.99942421   0.89873222   -4.4932222     -3.59449 
    5730   0.60019033            0    1.0006509   0.89983536    -4.493269   -3.5934337 
    5740   0.60417288            0    1.0072907    0.9058062    -4.498562   -3.5927558 
    5750   0.61170079            0    1.0198414    0.9170924   -4.5091966   -3.5921042 
    5760   0.61918518            0    1.0323196   0.92831338   -4.5199298   -3.5916165 
    5770   0.62118224            0    1.0356491   0.93130747   -4.5229635    -3.591656 
    5780   0.61594925            0    1.0269246   0.92346191   -4.5160005   -3.5925386 
    5790   0.60777792            0    1.0133011   0.91121105   -4.5048166   -3.5936056 
    5800    0.6014518            0    1.0027541   0.90172661     -4.49671   -3.5949834 
    5810   0.59769689            0   0.99649382   0.89609706   -4.4920857   -3.5959886 
    5820   0.59567175            0   0.99311746   0.89306088   -4.4904114   -3.5973505 
    5830   0.59421311            0   0.99068557     0.890874   -4.4885402   -3.5976662 
    5840    0.5926544            0   0.98808686   0.88853711   -4.4865766   -3.5980394 
    5850   0.59183248            0   0.98671654   0.88730484   -4.4856164   -3.5983115 
    5860    0.5931978            0   0.98899283    0.8893518   -4.4875239   -3.5981721 
    5870   0.59747345            0    0.9961213   0.89576208   -4.4936196   -3.5978576 
    5880   0.60282434            0    1.0050424   0.90378438   -4.5014262   -3.5976418 
    5890   0.60692403            0    1.0118775   0.90993086   -4.5077358   -3.5978049 
    5900   0.60865455            0    1.0147627   0.91252533   -4.5104049   -3.5978796 
    5910   0.60742133            0    1.0127066   0.91067642   -4.5090827   -3.5984063 
    5920   0.60418328            0    1.0073081   0.90582178   -4.5040485   -3.5982267 
    5930   0.60177031            0    1.0032851   0.90220414   -4.5008862   -3.5986821 
    5940   0.60244514            0    1.0044102   0.90321587   -4.5027791   -3.5995633 
    5950   0.60625772            0    1.0107666   0.90893188    -4.509281   -3.6003491 
    5960   0.61165381            0    1.0197631   0.91702197   -4.5185211   -3.6014991 
    5970   0.61613254            0    1.0272301   0.92373671   -4.5266266   -3.6028899 
    5980   0.61807071            0    1.0304615   0.92664251   -4.5312366   -3.6045941 
    5990   0.61631484            0    1.0275341   0.92401002   -4.5307226   -3.6067125 
    6000    0.6109792            0    1.0186384   0.91601056   -4.5254827   -3.6094721 
    6010   0.60488986            0    1.0084861   0.90688112   -4.5193492   -3.6124681 
    6020     0.601148            0    1.0022476   0.90127114   -4.5171952    -3.615924 
    6030   0.60047144            0    1.0011196   0.90025681   -4.5189583   -3.6187015 
    6040   0.60151508            0    1.0028596   0.90182149   -4.5236049   -3.6217834 
    6050   0.60294083            0    1.0052366   0.90395903   -4.5288014   -3.6248423 
    6060   0.60376062            0    1.0066034   0.90518811   -4.5335604   -3.6283723 
    6070   0.60254853            0    1.0045826   0.90337089   -4.5355288   -3.6321579 
    6080   0.59834044            0   0.99756675    0.8970619   -4.5321222   -3.6350603 
    6090   0.59263122            0   0.98804822   0.88850236   -4.5266892   -3.6381868 
    6100    0.5882021            0   0.98066388   0.88186199   -4.5229065   -3.6410446 
    6110   0.58672213            0   0.97819645   0.87964315   -4.5225663   -3.6429232 
    6120     0.587496            0   0.97948665   0.88080337   -4.5258484   -3.6450451 
    6130   0.58803683            0   0.98038835   0.88161422   -4.5277903   -3.6461761 
    6140   0.58728515            0   0.97913513   0.88048726   -4.5278379   -3.6473507 
    6150   0.58633681            0   0.97755403   0.87906546   -4.5272763   -3.6482108 
    6160    0.5859961            0   0.97698598   0.87855465   -4.5268404   -3.6482857 
    6170   0.58661942            0    0.9780252   0.87948916   -4.5269605   -3.6474713 
    6180   0.58905799            0   0.98209085    0.8831452   -4.5295265   -3.6463813 
    6190   0.59283456            0   0.98838722   0.88880721   -4.5346056   -3.6457983 
    6200   0.59613324            0   0.99388687   0.89375276   -4.5388131   -3.6450604 
    6210   0.59830727            0   0.99751145   0.89701217   -4.5411243   -3.6441121 
    6220   0.59950278            0   0.99950464   0.89880455   -4.5422113   -3.6434067 
    6230   0.59921011            0   0.99901668   0.89836575   -4.5414043   -3.6430386 
    6240   0.59759661            0   0.99632663   0.89594672   -4.5386351   -3.6426883 
    6250   0.59586163            0   0.99343402   0.89334555   -4.5353599   -3.6420144 
    6260   0.59340354            0   0.98933585   0.88966026   -4.5313683   -3.6417081 
    6270   0.58973438            0   0.98321854   0.88415927   -4.5254608   -3.6413016 
    6280   0.58636454            0   0.97760026   0.87910703   -4.5196065   -3.6404994 
    6290   0.58416263            0   0.97392919   0.87580583    -4.515211   -3.6394052 
    6300   0.58314565            0   0.97223366   0.87428112   -4.5125858   -3.6383047 
    6310    0.5831364            0   0.97221824   0.87426725   -4.5109378   -3.6366706 
    6320   0.58390991            0   0.97350784   0.87542693   -4.5096606   -3.6342337 
    6330   0.58617706            0    0.9772877   0.87882596   -4.5107307   -3.6319047 
    6340   0.59102512            0   0.98537049   0.88609441   -4.5152438   -3.6291493 
    6350   0.59759074            0   0.99631683   0.89593791   -4.5219851   -3.6260472 
    6360   0.60318714            0    1.0056473   0.90432831   -4.5274584   -3.6231301 
    6370   0.60569815            0    1.0098337   0.90809296    -4.528652   -3.6205591 
    6380   0.60604225            0    1.0104074   0.90860884   -4.5266074   -3.6179986 
    6390   0.60669162            0      1.01149   0.90958241   -4.5253031   -3.6157207 
    6400   0.60782347            0    1.0133771   0.91127933   -4.5248106   -3.6135313 
    6410   0.60813138            0    1.0138904   0.91174096   -4.5230144   -3.6112734 
    6420   0.60779688            0    1.0133327   0.91123947   -4.5209863   -3.6097468 
    6430   0.60880779            0    1.0150182   0.91275508   -4.5210903   -3.6083352 
    6440   0.61139303            0    1.0193283     0.916631   -4.5236764   -3.6070454 
    6450   0.61243606            0    1.0210673   0.91819476   -4.5243206   -3.6061259 
    6460   0.61134531            0    1.0192488   0.91655946   -4.5219937   -3.6054343 
    6470   0.60983837            0    1.0167364   0.91430017   -4.5196294   -3.6053292 
    6480   0.60862707            0    1.0147169   0.91248413   -4.5180353   -3.6055512 
    6490   0.60713426            0     1.012228   0.91024604   -4.5160694   -3.6058234 
    6500   0.60473855            0    1.0082338   0.90665427   -4.5132215   -3.6065672 
    6510   0.60146539            0    1.0027767   0.90174699   -4.5094239   -3.6076769 
    6520    0.5973855            0   0.99597466   0.89563022    -4.504353   -3.6087228 
    6530   0.59363714            0   0.98972531   0.89001049   -4.4997211   -3.6097106 
    6540   0.59209917            0   0.98716117   0.88770468   -4.4983418   -3.6106371 
    6550   0.59313375            0   0.98888604   0.88925578    -4.501252   -3.6119963 
    6560   0.59498992            0   0.99198069   0.89203864   -4.5047876    -3.612749 
    6570   0.59684278            0   0.99506982   0.89481654   -4.5084832   -3.6136667 
    6580   0.59955053            0   0.99958424   0.89887613    -4.513655   -3.6147789 
    6590   0.60308635            0    1.0054792   0.90417721   -4.5198667   -3.6156895 
    6600   0.60683186            0    1.0117238   0.90979266   -4.5268914   -3.6170987 
    6610   0.60943689            0     1.016067   0.91369826   -4.5326716   -3.6189733 
    6620    0.6098399            0    1.0167389   0.91430246   -4.5357824   -3.6214799 
    6630   0.60835287            0    1.0142597   0.91207304   -4.5366081   -3.6245351 
    6640   0.60461908            0    1.0080346   0.90647515   -4.5347269   -3.6282517 
    6650   0.59807241            0   0.99711988   0.89666006   -4.5293659   -3.6327059 
    6660   0.58991243            0   0.98351538    0.8844262   -4.5219312    -3.637505 
    6670   0.58244155            0   0.97105977    0.8732255    -4.515377   -3.6421515 
    6680   0.57787595            0    0.9634479   0.86638052   -4.5127269   -3.6463463 
    6690   0.57771896            0   0.96318615   0.86614515   -4.5161187   -3.6499736 
    6700   0.58164561            0   0.96973276   0.87203218   -4.5249721   -3.6529399 
    6710   0.58674157            0   0.97822886    0.8796723   -4.5354146   -3.6557423 
    6720   0.58893733            0   0.98188968    0.8829643   -4.5412398   -3.6582755 
    6730   0.58594502            0   0.97690082   0.87847807   -4.5392564   -3.6607783 
    6740   0.57884535            0    0.9650641   0.86783389   -4.5307562   -3.6629223 
    6750   0.57123086            0   0.95236904   0.85641786   -4.5207765   -3.6643586 
    6760   0.56654084            0   0.94454974   0.84938636   -4.5141985   -3.6648122 
    6770   0.56591835            0   0.94351191   0.84845309    -4.512737   -3.6642839 
    6780   0.56911898            0   0.94884807   0.85325163   -4.5161188   -3.6628672 
    6790   0.57497639            0   0.95861368   0.86203335   -4.5226655   -3.6606322 
    6800   0.58082399            0   0.96836294   0.87080037   -4.5282471   -3.6574467 
    6810   0.58429977            0   0.97415783   0.87601143   -4.5289211   -3.6529097 
    6820   0.58539663            0   0.97598654    0.8776559   -4.5260344   -3.6483785 
    6830   0.58664189            0   0.97806268   0.87952286   -4.5226054   -3.6430826 
    6840   0.59121603            0   0.98568877   0.88638063   -4.5237881   -3.6374075 
    6850   0.59840234            0   0.99766996   0.89715471   -4.5282628   -3.6311081 
    6860   0.60341931            0    1.0060344    0.9046764   -4.5299536   -3.6252772 
    6870   0.60350834            0    1.0061828   0.90480987   -4.5245926   -3.6197828 
    6880   0.60068853            0    1.0014815   0.90058228   -4.5160396   -3.6154573 
    6890   0.59894134            0    0.9985686   0.89796281   -4.5092272   -3.6112644 
    6900   0.59989846            0    1.0001643   0.89939776    -4.507095   -3.6076972 
    6910   0.60263259            0    1.0047227    0.9034969   -4.5083611   -3.6048642 
    6920   0.60508072            0    1.0088043   0.90716727      -4.5095   -3.6023327 
    6930   0.60580544            0    1.0100126   0.90825381    -4.508621   -3.6003672 
    6940   0.60471334            0    1.0081918   0.90661647   -4.5053373   -3.5987208 
    6950   0.60167475            0    1.0031258   0.90206087   -4.4994694   -3.5974085 
    6960   0.59730505            0   0.99584053    0.8955096   -4.4922896     -3.59678 
    6970   0.59347843            0    0.9894607   0.88977254   -4.4855083   -3.5957358 
    6980   0.59157422            0   0.98628595   0.88691764   -4.4815872   -3.5946695 
    6990   0.59112748            0   0.98554114   0.88624787   -4.4800084   -3.5937605 
    7000   0.59201506            0   0.98702094   0.88757858   -4.4802267   -3.5926481 
    7010   0.59554613            0   0.99290803   0.89287254   -4.4840181   -3.5911455 
    7020   0.60186501            0     1.003443   0.90234612   -4.4916238   -3.5892777 
    7030   0.60873666            0    1.0148996   0.91264843   -4.5005253   -3.5878768 
    7040   0.61336549            0    1.0226169   0.91958821    -4.506518   -3.5869297 
    7050   0.61531239            0    1.0258628    0.9225071   -4.5089891    -3.586482 
    7060   0.61734634            0    1.0292538    0.9255565   -4.5117657   -3.5862092 
    7070    0.6218322            0    1.0367327   0.93228192   -4.5187642   -3.5864823 
    7080   0.62727029            0    1.0457993   0.94043499   -4.5278461   -3.5874112 
    7090   0.63042165            0    1.0510533   0.94515965   -4.5342484   -3.5890887 
    7100   0.62935295            0    1.0492715   0.94355742   -4.5356265   -3.5920691 
    7110   0.62419114            0    1.0406656   0.93581857   -4.5321758   -3.5963573 
    7120   0.61672323            0     1.028215    0.9246223   -4.5257659   -3.6011436 
    7130   0.60933115            0    1.0158907   0.91353972   -4.5198243   -3.6062846 
    7140   0.60336219            0    1.0059391   0.90459077   -4.5163013   -3.6117105 
    7150    0.5992507            0   0.99908436   0.89842661   -4.5151876    -3.616761 
    7160   0.59654604            0   0.99457509   0.89437165   -4.5159733   -3.6216017 
    7170   0.59462025            0   0.99136438   0.89148442   -4.5173736   -3.6258892 
    7180    0.5935737            0   0.98961954   0.88991537   -4.5192874    -3.629372 
    7190   0.59331675            0   0.98919115   0.88953014   -4.5220708   -3.6325407 
    7200    0.5932623            0   0.98910037   0.88944851   -4.5243279   -3.6348794 
    7210   0.59342468            0   0.98937109   0.88969195   -4.5262176   -3.6365257 
    7220   0.59403361            0   0.99038631   0.89060489   -4.5283998   -3.6377949 
    7230   0.59402295            0   0.99036853    0.8905889   -4.5293024   -3.6387135 
    7240   0.59180795            0   0.98667564   0.88726807   -4.5266448   -3.6393767 
    7250    0.5876011            0   0.97966189   0.88096096   -4.5207066   -3.6397456 
    7260   0.58432949            0   0.97420738   0.87605598   -4.5159603   -3.6399043 
    7270   0.58556387            0   0.97626537   0.87790663   -4.5177631   -3.6398564 
    7280   0.59175107            0   0.98658081   0.88718279   -4.5264496   -3.6392668 
    7290   0.59936766            0   0.99927936   0.89860196   -4.5369625   -3.6383606 
    7300    0.6040245            0    1.0070433   0.90558373   -4.5432009   -3.6376171 
    7310   0.60303596            0    1.0053952   0.90410166   -4.5407667   -3.6366651 
    7320   0.59658104            0   0.99463344   0.89442412   -4.5305683   -3.6361441 
    7330   0.58761122            0   0.97967875   0.88097611   -4.5169155   -3.6359394 
    7340   0.57953198            0   0.96620887   0.86886333   -4.5040849   -3.6352215 
    7350   0.57470846            0   0.95816698   0.86163166   -4.4953833   -3.6337517 
    7360   0.57412779            0   0.95719888   0.86076109    -4.492885   -3.6321239 
    7370   0.57656776            0   0.96126684   0.86441921   -4.4940786   -3.6296594 
    7380   0.57928764            0   0.96580149   0.86849699   -4.4946022   -3.6261052 
    7390   0.58157423            0   0.96961376   0.87192517   -4.4942268   -3.6223016 
    7400   0.58621858            0   0.97735691    0.8788882    -4.497117   -3.6182288 
    7410   0.59457629            0   0.99129108   0.89141851   -4.5056911   -3.6142726 
    7420   0.60390103            0    1.0068375   0.90539862   -4.5155308   -3.6101322 
    7430   0.61139951            0    1.0193391   0.91664072    -4.523285   -3.6066442 
    7440    0.6162837            0    1.0274822   0.92396334   -4.5278356   -3.6038722 
    7450   0.61802864            0    1.0303914   0.92657945   -4.5283852   -3.6018058 
    7460   0.61621119            0    1.0273613   0.92385463   -4.5244498   -3.6005951 
    7470    0.6118061            0     1.020017   0.91725029   -4.5173797   -3.6001294 
    7480   0.60754172            0    1.0129073   0.91085693   -4.5106274   -3.5997704 
    7490   0.60593116            0    1.0102222   0.90844229   -4.5080748   -3.5996326 
    7500   0.60643262            0    1.0110582    0.9091941   -4.5088013   -3.5996072 
    7510    0.6065008            0    1.0111719   0.90929633   -4.5089708   -3.5996745 
    7520   0.60495188            0    1.0085895   0.90697411   -4.5068811    -3.599907 
    7530   0.60261096            0    1.0046867   0.90346448   -4.5037713   -3.6003068 
    7540   0.60097756            0    1.0019634    0.9010156   -4.5019916    -3.600976 
    7550   0.60122429            0    1.0023748   0.90138552   -4.5026423   -3.6012568 
    7560   0.60538097            0    1.0093049   0.90761741   -4.5092942   -3.6016768 
    7570    0.6128035            0    1.0216799   0.91874564   -4.5214895   -3.6027438 
    7580   0.61822342            0    1.0307161   0.92687146   -4.5307417   -3.6038702 
    7590   0.61945929            0    1.0327766   0.92872434   -4.5341676   -3.6054433 
    7600   0.61761366            0    1.0296995   0.92595727   -4.5334092   -3.6074519 
    7610   0.61370602            0    1.0231846   0.92009875   -4.5300426   -3.6099438 
    7620   0.60876608            0    1.0149486   0.91269255   -4.5253835   -3.6126909 
    7630   0.60414247            0      1.00724   0.90576061   -4.5210812   -3.6153206 
    7640   0.60176173            0    1.0032708   0.90219127   -4.5201949   -3.6180036 
    7650   0.60215046            0    1.0039189   0.90277408   -4.5234281    -3.620654 
    7660   0.60391248            0    1.0068566   0.90541578   -4.5287174   -3.6233016 
    7670   0.60540127            0    1.0093387   0.90764785   -4.5335285   -3.6258806 
    7680   0.60522745            0    1.0090489   0.90738725   -4.5355539   -3.6281667 
    7690   0.60294021            0    1.0052356   0.90395811   -4.5346526   -3.6306944 
    7700   0.59940726            0   0.99934538   0.89866134   -4.5312921   -3.6326307 
    7710   0.59634425            0   0.99423866   0.89406911   -4.5284181    -3.634349 
    7720   0.59449239            0   0.99115119   0.89129271    -4.527171   -3.6358783 
    7730   0.59357379            0   0.98961969   0.88991551   -4.5267219   -3.6368064 
    7740   0.59327869            0   0.98912768   0.88947307   -4.5271553   -3.6376823 
    7750   0.59412083            0   0.99053172   0.89073565   -4.5289638   -3.6382281 
    7760   0.59699652            0   0.99532615   0.89504704   -4.5336203   -3.6385733 
    7770     0.601579            0    1.0029662   0.90191731   -4.5404384    -3.638521 
    7780   0.60493023            0    1.0085534   0.90694164   -4.5454231   -3.6384814 
    7790    0.6045511            0    1.0079213   0.90637324   -4.5452116   -3.6388384 
    7800   0.60042665            0    1.0010449   0.90018965   -4.5396343   -3.6394447 
    7810   0.59400371            0   0.99033647   0.89056007    -4.530247   -3.6396869 
    7820   0.58820166            0   0.98066316   0.88186135   -4.5217351   -3.6398737 
    7830   0.58619069            0   0.97731042    0.8788464   -4.5185239   -3.6396775 
    7840   0.58867053            0   0.98144486   0.88256429   -4.5217534   -3.6391891 
    7850   0.59307004            0   0.98877983   0.88916026   -4.5269892   -3.6378289 
    7860   0.59567739            0   0.99312686   0.89306933   -4.5299465   -3.6368772 
    7870   0.59552548            0   0.99287359   0.89284157   -4.5288917   -3.6360502 
    7880   0.59501217            0   0.99201778   0.89207199   -4.5267703   -3.6346983 
    7890   0.59559686            0    0.9929926   0.89294859   -4.5264734   -3.6335248 
    7900   0.59654311            0   0.99457021   0.89436726   -4.5268007   -3.6324334 
    7910   0.59876699            0   0.99827791   0.89770141   -4.5286441   -3.6309427 
    7920   0.60248707            0    1.0044801   0.90327875   -4.5333187   -3.6300399 
    7930   0.60527462            0    1.0091276   0.90745798   -4.5359929   -3.6285349 
    7940   0.60586875            0    1.0101181   0.90834872   -4.5358137    -3.627465 
    7950    0.6041595            0    1.0072684   0.90578613   -4.5325154   -3.6267293 
    7960   0.60073682            0    1.0015621   0.90065468   -4.5266896   -3.6260349 
    7970   0.59622465            0   0.99403926   0.89388981   -4.5190507   -3.6251609 
    7980   0.59172739            0   0.98654132   0.88714728   -4.5114131   -3.6242659 
    7990   0.58916408            0   0.98226772   0.88330424   -4.5064045   -3.6231003 
    8000   0.58880217            0   0.98166434   0.88276166   -4.5044782   -3.6217166 
    8010    0.5899291            0   0.98354317    0.8844512   -4.5042097   -3.6197585 
    8020   0.59278795            0   0.98830953   0.88873734   -4.5061551   -3.6174178 
    8030   0.59730296            0   0.99583704   0.89550646   -4.5098611   -3.6143546 
    8040   0.60146398            0    1.0027744   0.90174488   -4.5125041   -3.6107592 
    8050   0.60430245            0    1.0075067   0.90600044   -4.5129857   -3.6069853 
    8060   0.60738761            0    1.0126504   0.91062588   -4.5130856   -3.6024598 
    8070   0.61125056            0    1.0190908    0.9164174   -4.5140734    -3.597656 
    8080   0.61529263            0    1.0258298   0.92247748   -4.5153597   -3.5928822 
    8090   0.62005981            0    1.0337778   0.92962467   -4.5169252   -3.5873005 
    8100   0.62466965            0    1.0414634   0.93653597   -4.5186955   -3.5821595 
    8110   0.62627381            0    1.0441379   0.93894102   -4.5159638   -3.5770228 
    8120   0.62427487            0    1.0408052    0.9359441   -4.5080836   -3.5721395 
    8130   0.62134059            0    1.0359131   0.93154489   -4.4993306   -3.5677857 
    8140   0.62009203            0    1.0338315   0.92967297   -4.4932011   -3.5635281 
    8150   0.61971492            0    1.0332028   0.92910759   -4.4887439   -3.5596364 
    8160   0.61749957            0    1.0295093   0.92578622   -4.4818309   -3.5560447 
    8170   0.61319541            0    1.0223333   0.91933322   -4.4719396   -3.5526064 
    8180    0.6099679            0    1.0169523   0.91449438   -4.4639955   -3.5495012 
    8190   0.61173721            0    1.0199022   0.91714701   -4.4630452   -3.5458981 
    8200   0.61877458            0     1.031635   0.92769778   -4.4703518    -3.542654 
    8210   0.62781631            0    1.0467096    0.9412536   -4.4807063   -3.5394528 
    8220   0.63484856            0    1.0584339    0.9517967   -4.4887046   -3.5369079 
    8230   0.63744855            0    1.0627687   0.95569473   -4.4908222   -3.5351275 
    8240   0.63621386            0    1.0607102   0.95384364   -4.4875932   -3.5337496 
    8250    0.6333534            0    1.0559411   0.94955508   -4.4836809   -3.5341259 
    8260   0.63066479            0    1.0514586   0.94552418   -4.4805817   -3.5350575 
    8270   0.62836467            0    1.0476238   0.94207573   -4.4797296   -3.5376539 
    8280   0.62624045            0    1.0440823   0.93889099   -4.4806797   -3.5417888 
    8290   0.62536278            0     1.042619   0.93757515   -4.4847692   -3.5471941 
    8300   0.62519182            0     1.042334   0.93731883   -4.4922475   -3.5549287 
    8310   0.62230241            0    1.0375167   0.93298689    -4.496955   -3.5639681 
    8320   0.61501253            0    1.0253628   0.92205754   -4.4960419   -3.5739843 
    8330    0.6058152            0    1.0100289   0.90826845   -4.4909849   -3.5827164 
    8340   0.59892281            0    0.9985377   0.89793503   -4.4885163   -3.5905813 
    8350   0.59640212            0   0.99433514   0.89415588   -4.4911166   -3.5969607 
    8360   0.59733211            0   0.99588564   0.89555016   -4.4976276   -3.6020774 
    8370   0.59995021            0    1.0002506   0.89947536   -4.5057496   -3.6062742 
    8380   0.60191161            0    1.0035207   0.90241598   -4.5122341   -3.6098182 
    8390   0.60151753            0    1.0028637   0.90182516   -4.5147065   -3.6128813 
    8400   0.60012565            0    1.0005431   0.89973838   -4.5155218   -3.6157835 
    8410   0.60019519            0     1.000659   0.89984263   -4.5183977   -3.6185551 
    8420   0.60194289            0    1.0035728   0.90246287   -4.5235897   -3.6211269 
    8430   0.60323676            0      1.00573   0.90440272   -4.5277699   -3.6233672 
    8440    0.6022155            0    1.0040273   0.90287159   -4.5286114   -3.6257398 
    8450   0.59862819            0    0.9980465   0.89749332   -4.5252835   -3.6277902 
    8460   0.59370906            0   0.98984522   0.89011831   -4.5200217   -3.6299034 
    8470   0.58939097            0   0.98264599   0.88364441   -4.5155244     -3.63188 
    8480   0.58636074            0   0.97759393   0.87910134   -4.5129727   -3.6338714 
    8490   0.58431445            0    0.9741823   0.87603343   -4.5111471   -3.6351136 
    8500   0.58301028            0   0.97200796   0.87407816   -4.5097825   -3.6357044 
    8510   0.58254015            0   0.97122415   0.87337332   -4.5094575   -3.6360842 
    8520    0.5822897            0   0.97080659   0.87299783   -4.5086485   -3.6356506 
    8530   0.58256064            0   0.97125832   0.87340404   -4.5083312   -3.6349271 
    8540   0.58468927            0   0.97480722   0.87659539   -4.5098085   -3.6332131 
    8550   0.58771223            0   0.97984716   0.88112756   -4.5126325    -3.631505 
    8560   0.58984485            0   0.98340271   0.88432489   -4.5137302   -3.6294053 
    8570   0.59185529            0   0.98675457   0.88733905    -4.513892    -3.626553 
    8580   0.59639488            0   0.99432307   0.89414502   -4.5174919   -3.6233469 
    8590   0.60530496            0    1.0091782   0.90750345   -4.5273425    -3.619839 
    8600   0.61678344            0    1.0283153   0.92471258   -4.5412691   -3.6165566 
    8610   0.62549321            0    1.0428365   0.93777069   -4.5512101   -3.6134394 
    8620   0.62791306            0    1.0468709   0.94139866    -4.552518   -3.6111193 
    8630   0.62451472            0    1.0412051   0.93630369     -4.54632   -3.6100163 
    8640   0.61739592            0    1.0293365   0.92563083    -4.534961   -3.6093302 
    8650   0.60868573            0    1.0148147   0.91257209   -4.5220155   -3.6094434 
    8660    0.6013409            0    1.0025692   0.90156035   -4.5111966   -3.6096363 
    8670   0.59639195            0   0.99431819   0.89414064   -4.5038128   -3.6096722 
    8680   0.59247514            0     0.987788   0.88826836   -4.4977193    -3.609451 
    8690   0.59004663            0   0.98373913   0.88462742   -4.4938989   -3.6092715 
    8700   0.59028027            0   0.98412866   0.88497769   -4.4938137    -3.608836 
    8710   0.59289684            0   0.98849106   0.88890058   -4.4969656    -3.608065 
    8720    0.5966778            0   0.99479476   0.89456919   -4.5013651   -3.6067959 
    8730   0.60105401            0    1.0020909   0.90113023    -4.506119   -3.6049888 
    8740   0.60590234            0    1.0101741   0.90839908   -4.5117423   -3.6033432 
    8750   0.61031836            0    1.0175366    0.9150198    -4.516324   -3.6013042 
    8760   0.61445451            0    1.0244325   0.92122092   -4.5210237   -3.5998027 
    8770   0.61897362            0    1.0319669    0.9279962   -4.5262857   -3.5982895 
    8780   0.62325621            0    1.0391069   0.93441687   -4.5320036   -3.5975868 
    8790   0.62589453            0    1.0435056   0.93837237   -4.5350884    -3.596716 
    8800   0.62558811            0    1.0429947   0.93791297   -4.5352989    -3.597386 
    8810   0.62158462            0      1.03632   0.93191073   -4.5305794   -3.5986687 
    8820   0.61464563            0    1.0247511   0.92150746   -4.5225991   -3.6010916 
    8830   0.60742853            0    1.0127186   0.91068722   -4.5147756   -3.6040884 
    8840   0.60204392            0    1.0037413   0.90261435   -4.5105462   -3.6079319 
    8850   0.59870664            0   0.99817729   0.89761093    -4.509551   -3.6119401 
    8860   0.59709531            0   0.99549084   0.89519514   -4.5113601    -3.616165 
    8870   0.59674594            0   0.99490836   0.89467135    -4.515533   -3.6208617 
    8880   0.59636385            0   0.99427134    0.8940985   -4.5195796   -3.6254811 
    8890   0.59399829            0   0.99032743   0.89055194   -4.5206725   -3.6301205 
    8900   0.58919567            0   0.98232038    0.8833516   -4.5177043   -3.6343527 
    8910   0.58419191            0     0.973978   0.87584972   -4.5142779   -3.6384282 
    8920   0.58141948            0   0.96935575   0.87169316   -4.5133278   -3.6416346 
    8930   0.58024347            0   0.96739507   0.86993002   -4.5144274   -3.6444973 
    8940   0.57867391            0   0.96477827   0.86757686   -4.5141523   -3.6465754 
    8950   0.57743105            0   0.96270614    0.8657135    -4.514019   -3.6483055 
    8960   0.57949616            0   0.96614914   0.86880961   -4.5179638   -3.6491542 
    8970   0.58600631            0   0.97700301   0.87856996   -4.5283042   -3.6497343 
    8980   0.59460882            0   0.99134531   0.89146727   -4.5416128   -3.6501456 
    8990   0.60213211            0    1.0038883   0.90274656    -4.552944   -3.6501975 
    9000   0.60657152            0    1.0112898   0.90940235   -4.5598106   -3.6504083 
    9010    0.6077593            0    1.0132701   0.91118312   -4.5618996   -3.6507165 
    9020    0.6069656            0    1.0119468   0.90999318   -4.5615823   -3.6515891 
    9030    0.6040368            0    1.0070639   0.90560217    -4.557768   -3.6521658 
    9040    0.5978511            0   0.99675091   0.89632826   -4.5491808   -3.6528525 
    9050    0.5896462            0   0.98307151   0.88402706   -4.5380156   -3.6539886 
    9060    0.5829503            0   0.97190796   0.87398824   -4.5285025   -3.6545142 
    9070   0.58073951            0   0.96822209   0.87067372   -4.5255547    -3.654881 
    9080   0.58251215            0   0.97117747   0.87333134   -4.5276254   -3.6542941 
    9090   0.58492162            0   0.97519459   0.87694374   -4.5305337     -3.65359 
    9100    0.5854471            0   0.97607068   0.87773156    -4.529989   -3.6522575 
    9110   0.58405495            0   0.97374966   0.87564438   -4.5260417   -3.6503973 
    9120   0.58244562            0   0.97106655    0.8732316   -4.5203952   -3.6471636 
    9130   0.58294667            0   0.97190192    0.8739828   -4.5172946   -3.6433118 
    9140   0.58621837            0   0.97735656   0.87888789   -4.5171406   -3.6382527 
    9150   0.59093659            0    0.9852229   0.88596169   -4.5184996   -3.6325379 
    9160   0.59637454            0   0.99428917   0.89411453   -4.5193364   -3.6252219 
    9170      0.60228            0    1.0041349   0.90296829    -4.520978   -3.6180097 
    9180   0.60823087            0    1.0140563   0.91189013   -4.5232739   -3.6113838 
    9190   0.61419737            0    1.0240038   0.92083541   -4.5257623   -3.6049269 
    9200   0.61876369            0    1.0316169   0.92768147   -4.5266576   -3.5989762 
    9210    0.6201712            0    1.0339635   0.92979167   -4.5241074   -3.5943157 
    9220   0.61876384            0    1.0316171   0.92768169   -4.5186397    -3.590958 
    9230   0.61637533            0    1.0276349   0.92410071   -4.5126521   -3.5885514 
    9240   0.61430049            0    1.0241757   0.92099002   -4.5082616   -3.5872716 
    9250   0.61367441            0    1.0231319   0.92005136   -4.5060946   -3.5860432 
    9260   0.61482959            0    1.0250578   0.92178327   -4.5069843   -3.5852011 
    9270   0.61598596            0    1.0269858   0.92351696   -4.5087007   -3.5851838 
    9280   0.61568065            0    1.0264768   0.92305922   -4.5087352    -3.585676 
    9290   0.61396749            0    1.0236205   0.92049076    -4.507122   -3.5866312 
    9300   0.61240603            0    1.0210172   0.91814974   -4.5058814   -3.5877316 
    9310    0.6118531            0    1.0200954   0.91732076    -4.506849   -3.5895283 
    9320   0.61113891            0    1.0189047   0.91625001    -4.507757    -3.591507 
    9330   0.60872665            0    1.0148829   0.91263343   -4.5063174    -3.593684 
    9340   0.60454581            0    1.0079125   0.90636531   -4.5025912   -3.5962258 
    9350   0.60154723            0    1.0029132   0.90186968   -4.5007567    -3.598887 
    9360   0.60294904            0    1.0052503   0.90397135   -4.5053631   -3.6013917 
    9370   0.60717009            0    1.0122877   0.91029975   -4.5143017    -3.604002 
    9380   0.61003765            0    1.0170686   0.91459895     -4.52146   -3.6068611 
    9390   0.61067005            0     1.018123   0.91554707   -4.5257193   -3.6101723 
    9400   0.60976112            0    1.0166076   0.91418436   -4.5280941   -3.6139098 
    9410   0.60790112            0    1.0135065   0.91139576   -4.5292356   -3.6178398 
    9420   0.60573712            0    1.0098987   0.90815138   -4.5305368   -3.6223854 
    9430   0.60329734            0     1.005831   0.90449354   -4.5309294   -3.6264358 
    9440   0.60067353            0    1.0014565   0.90055979    -4.531345   -3.6307852 
    9450    0.5981138            0   0.99718889   0.89672211   -4.5315188   -3.6347967 
    9460   0.59624876            0   0.99407946   0.89392595   -4.5325771   -3.6386512 
    9470   0.59496363            0   0.99193686   0.89199922   -4.5339627   -3.6419635 
    9480   0.59254473            0   0.98790402   0.88837269   -4.5330196   -3.6446469 
    9490   0.58750182            0   0.97949637   0.88081211   -4.5279853   -3.6471732 
    9500   0.58080477            0   0.96833089   0.87077155   -4.5198353   -3.6490638 
    9510   0.57500666            0   0.95866414   0.86207873    -4.512243   -3.6501643 
    9520   0.57331337            0   0.95584105   0.85954007   -4.5096177   -3.6500776 
    9530   0.57891324            0   0.96517729   0.86793568   -4.5177975   -3.6498618 
    9540   0.59013113            0      0.98388   0.88475409   -4.5337427   -3.6489886 
    9550   0.60068347            0    1.0014731   0.90057469   -4.5485667   -3.6479921 
    9560   0.60675671            0    1.0115985   0.90967999   -4.5565498   -3.6468699 
    9570   0.60843835            0    1.0144022    0.9122012   -4.5582395   -3.6460383 
    9580   0.60618067            0    1.0106382   0.90881637   -4.5543342   -3.6455179 
    9590   0.60074756            0      1.00158   0.90067079   -4.5458052   -3.6451344 
    9600   0.59381671            0    0.9900247   0.89027971   -4.5353039   -3.6450242 
    9610   0.58760739            0   0.97967236   0.88097037   -4.5255586   -3.6445882 
    9620   0.58449475            0    0.9744829   0.87630375   -4.5204517    -3.644148 
    9630   0.58573036            0   0.97654295   0.87815625   -4.5214583   -3.6433021 
    9640   0.59085931            0   0.98509404   0.88584582   -4.5281601   -3.6423142 
    9650   0.59733114            0   0.99588403   0.89554871   -4.5364175   -3.6408687 
    9660   0.60136476            0     1.002609   0.90159612   -4.5413218   -3.6397257 
    9670    0.6010015            0    1.0020033   0.90105151   -4.5397454   -3.6386939 
    9680   0.59775817            0   0.99659598   0.89618894   -4.5336911   -3.6375022 
    9690   0.59383389            0   0.99005334   0.89030546   -4.5269752   -3.6366698 
    9700   0.59024224            0   0.98406525   0.88492067   -4.5203106   -3.6353899 
    9710    0.5884675            0   0.98110637   0.88225991   -4.5164006   -3.6341407 
    9720   0.59003919            0   0.98372673   0.88461626   -4.5169853    -3.632369 
    9730   0.59411991            0   0.99053019   0.89073428   -4.5214076   -3.6306733 
    9740   0.59823465            0   0.99739037   0.89690329   -4.5258644   -3.6289611 
    9750   0.60126006            0    1.0024344   0.90143914   -4.5283122   -3.6268731 
    9760   0.60345266            0      1.00609    0.9047264   -4.5300979   -3.6253715 
    9770   0.60443841            0    1.0077334   0.90620429   -4.5297354   -3.6235311 
    9780   0.60448358            0    1.0078087   0.90627201   -4.5282594   -3.6219874 
    9790   0.60412736            0    1.0072148   0.90573795   -4.5266511   -3.6209132 
    9800   0.60302218            0    1.0053723   0.90408101   -4.5239982   -3.6199172 
    9810   0.60092623            0    1.0018778   0.90093865   -4.5195776   -3.6186389 
    9820   0.59766731            0    0.9964445   0.89605271   -4.5135252   -3.6174725 
    9830   0.59327789            0   0.98912636   0.88947188     -4.50565   -3.6161782 
    9840   0.58883087            0   0.98171219   0.88280469   -4.4975794   -3.6147747 
    9850   0.58568473            0   0.97646687   0.87808783   -4.4912246   -3.6131367 
    9860   0.58450511            0   0.97450017   0.87631928    -4.486808   -3.6104887 
    9870   0.58621919            0   0.97735794   0.87888912   -4.4863869   -3.6074978 
    9880    0.5919642            0   0.98693614   0.88750233   -4.4911272   -3.6036249 
    9890   0.60220738            0    1.0040138   0.90285942   -4.5019582   -3.5990988 
    9900   0.61494151            0    1.0252444   0.92195106    -4.515839   -3.5938879 
    9910   0.62633067            0    1.0442327   0.93902625   -4.5279979   -3.5889716 
    9920   0.63409601            0    1.0571793   0.95066845   -4.5347748   -3.5841064 
    9930   0.63757505            0    1.0629796    0.9558844   -4.5357065   -3.5798221 
    9940    0.6368821            0    1.0618243   0.95484548   -4.5309365    -3.576091 
    9950   0.63382489            0    1.0567272   0.95026196    -4.523566   -3.5733041 
    9960   0.63111842            0    1.0522149   0.94620429   -4.5171894   -3.5709851 
    9970   0.62888622            0    1.0484934   0.94285767   -4.5124348   -3.5695772 
    9980   0.62562868            0    1.0430623   0.93797379   -4.5068114   -3.5688376 
    9990   0.62201765            0    1.0370419   0.93255997   -4.5013924   -3.5688324 
   10000   0.61940496            0     1.032686   0.92864288   -4.4980468   -3.5694039 
Loop time of 5.4836 on 8 procs for 10000 steps with 2000 atoms

Performance: 157560.593 tau/day, 1823.618 timesteps/s
83.2% CPU use with 8 MPI tasks x no OpenMP threads

MPI task timing breakdown:
Section |  min time  |  avg time  |  max time  |%varavg| %total
---------------------------------------------------------------
Pair    | 1.2958     | 2.061      | 2.814      |  50.0 | 37.58
Neigh   | 0.025215   | 0.056659   | 0.09008    |  13.0 |  1.03
Comm    | 1.6269     | 2.4296     | 3.2322     |  46.9 | 44.31
Output  | 0.11033    | 0.12296    | 0.1928     |   7.5 |  2.24
Modify  | 0.45382    | 0.51123    | 0.58232    |   5.8 |  9.32
Other   |            | 0.3022     |            |       |  5.51

Nlocal:    250 ave 284 max 217 min
Histogram: 3 1 0 0 0 0 0 0 2 2
Nghost:    1464.5 ave 1534 max 1395 min
Histogram: 4 0 0 0 0 0 0 0 0 4
Neighs:    15739.6 ave 22349 max 8937 min
Histogram: 4 0 0 0 0 0 0 0 0 4

Total # of neighbors = 125917
Ave neighs/atom = 62.9585
Neighbor list builds = 46
Dangerous builds = 0
unfix 		fx_vel1

########## Application of external field ##########
fix             fxacc fluid gravity 0.075 vector 1 0 0		# Applying an external acceleration of 0.075 to all fluid particles in the x-direction

run		10000
Per MPI rank memory allocation (min/avg/max) = 3.349 | 3.351 | 3.352 Mbytes
Step Temp c_wall_temp c_fluid_temp KinEng PotEng TotEng 
   10000   0.61940496            0     1.032686   0.92864288   -4.4980468   -3.5694039 
   10010   0.61661538            0    1.0280352   0.92446061   -4.4949656   -3.5705049 
   10020   0.61112956            0    1.0188891   0.91623599   -4.4892068   -3.5729708 
   10030   0.60310212            0    1.0055055   0.90420086   -4.4805718   -3.5763709 
   10040   0.59633448            0   0.99422238   0.89405447   -4.4741778   -3.5801234 
   10050    0.5932502            0   0.98908019   0.88943036   -4.4744256   -3.5849953 
   10060   0.59313253            0   0.98888401   0.88925395   -4.4792611   -3.5900072 
   10070   0.59403872            0   0.99039484   0.89061256   -4.4856973   -3.5950848 
   10080    0.5938302            0   0.99004719   0.89029993   -4.4905247   -3.6002248 
   10090   0.59159657            0   0.98632321   0.88695115   -4.4919826   -3.6050314 
   10100   0.58798744            0   0.98030601   0.88154018   -4.4911731    -3.609633 
   10110   0.58505375            0   0.97541488   0.87714183   -4.4908805   -3.6137387 
   10120   0.58509986            0   0.97549175   0.87721096   -4.4948478   -3.6176368 
   10130    0.5887966            0   0.98165504    0.8827533   -4.5037489   -3.6209956 
   10140   0.59443308            0   0.99105231   0.89120379    -4.515097   -3.6238932 
   10150   0.59945462            0   0.99942434   0.89873233   -4.5253408   -3.6266085 
   10160   0.60253066            0    1.0045528   0.90334409    -4.532686   -3.6293419 
   10170   0.60353271            0    1.0062234   0.90484642   -4.5367976   -3.6319511 
   10180   0.60231035            0    1.0041855   0.90301379   -4.5377464   -3.6347326 
   10190    0.5992039            0   0.99900634   0.89835645   -4.5357752   -3.6374187 
   10200    0.5950677            0   0.99211036   0.89215524   -4.5324049   -3.6402497 
   10210    0.5915084            0   0.98617622   0.88681897   -4.5295721   -3.6427531 
   10220   0.58998985            0   0.98364446   0.88454228   -4.5292324   -3.6446902 
   10230   0.58979077            0   0.98331256   0.88424382   -4.5309013   -3.6466575 
   10240   0.58916655            0   0.98227184   0.88330796   -4.5316742   -3.6483663 
   10250   0.58793339            0   0.98021588   0.88145913   -4.5311905   -3.6497314 
   10260   0.58640112            0   0.97766124   0.87916187   -4.5298049    -3.650643 
   10270   0.58456346            0   0.97459746   0.87640676   -4.5277226   -3.6513159 
   10280   0.58401828            0   0.97368853   0.87558941   -4.5270904   -3.6515009 
   10290   0.58679166            0   0.97831236   0.87974739   -4.5317003   -3.6519529 
   10300   0.59216717            0   0.98727454   0.88780663   -4.5394834   -3.6516768 
   10310   0.59719704            0   0.99566046   0.89534767   -4.5465022   -3.6511546 
   10320   0.59988286            0    1.0001383   0.89937438   -4.5496423    -3.650268 
   10330   0.59995833            0    1.0002641   0.89948752   -4.5488604   -3.6493729 
   10340   0.59754806            0   0.99624568   0.89587393   -4.5442968   -3.6484229 
   10350   0.59260274            0   0.98800074   0.88845966   -4.5354269   -3.6469672 
   10360   0.58613897            0   0.97722419   0.87876886   -4.5240674   -3.6452986 
   10370   0.58067961            0   0.96812222    0.8705839     -4.51326   -3.6426761 
   10380   0.57857937            0   0.96462066   0.86743512   -4.5065951     -3.63916 
   10390   0.58064057            0   0.96805712   0.87052537   -4.5050724   -3.6345471 
   10400   0.58685559            0   0.97841896   0.87984325   -4.5087563   -3.6289131 
   10410   0.59658317            0   0.99463699   0.89442732   -4.5164664   -3.6220391 
   10420   0.60848364            0    1.0144777    0.9122691   -4.5272546   -3.6149855 
   10430   0.62018284            0    1.0339829   0.92980912   -4.5373226   -3.6075134 
   10440   0.62856783            0    1.0479625   0.94238032   -4.5434765   -3.6010962 
   10450   0.63197656            0    1.0536457   0.94749085   -4.5431508     -3.59566 
   10460   0.63043757            0    1.0510798   0.94518353    -4.536796   -3.5916124 
   10470   0.62483566            0    1.0417402   0.93678486   -4.5258244   -3.5890395 
   10480   0.61654997            0    1.0279261   0.92436255   -4.5118417   -3.5874792 
   10490   0.60751263            0    1.0128588   0.91081331   -4.4974914   -3.5866781 
   10500   0.59962462            0   0.99970777   0.89898721   -4.4854233    -3.586436 
   10510   0.59445698            0   0.99109217   0.89123963    -4.477358   -3.5861183 
   10520   0.59409016            0   0.99048059   0.89068967   -4.4765638   -3.5858741 
   10530   0.59952142            0   0.99953571   0.89883248   -4.4837706   -3.5849381 
   10540   0.60795316            0    1.0135933   0.91147377   -4.4956119   -3.5841381 
   10550    0.6160086            0    1.0270235    0.9235509    -4.507258   -3.5837072 
   10560   0.62276849            0    1.0382938   0.93368567   -4.5176764   -3.5839908 
   10570   0.62748834            0    1.0461628    0.9407619   -4.5252984   -3.5845365 
   10580   0.62927011            0    1.0491334   0.94343322   -4.5294841   -3.5860509 
   10590   0.62829122            0    1.0475014   0.94196561   -4.5305144   -3.5885488 
   10600   0.62481326            0    1.0417028   0.93675128    -4.528656   -3.5919048 
   10610   0.61872564            0    1.0315534   0.92762442   -4.5231869   -3.5955625 
   10620   0.61072642            0    1.0182169   0.91563159   -4.5154466    -3.599815 
   10630   0.60270205            0    1.0048385   0.90360105    -4.508399    -3.604798 
   10640   0.59731906            0   0.99586388    0.8955306    -4.504775   -3.6092444 
   10650   0.59603273            0   0.99371929   0.89360207   -4.5071632   -3.6135611 
   10660   0.59808872            0   0.99714709   0.89668452   -4.5136081   -3.6169236 
   10670   0.60153137            0    1.0028867    0.9018459   -4.5220546   -3.6202087 
   10680   0.60443589            0    1.0077292   0.90620051    -4.528984   -3.6227835 
   10690   0.60480624            0    1.0083467   0.90675575   -4.5319797    -3.625224 
   10700   0.60110928            0     1.002183   0.90121309   -4.5285567   -3.6273436 
   10710   0.59424846            0   0.99074451     0.890927   -4.5200597   -3.6291327 
   10720    0.5878701            0   0.98011037   0.88136425   -4.5118378   -3.6304735 
   10730   0.58603312            0   0.97704771   0.87861015   -4.5098264   -3.6312162 
   10740    0.5896149            0   0.98301933   0.88398014   -4.5156854   -3.6317053 
   10750   0.59534803            0   0.99257774   0.89257553   -4.5240983   -3.6315228 
   10760   0.59848005            0   0.99779952   0.89727122   -4.5285122    -3.631241 
   10770   0.59585654            0   0.99342554   0.89333792   -4.5246836   -3.6313457 
   10780   0.58746098            0   0.97942827   0.88075087   -4.5116925   -3.6309417 
   10790   0.57664836            0   0.96140122   0.86454005   -4.4948498   -3.6303098 
   10800   0.56797856            0   0.94694675   0.85154186   -4.4807868   -3.6292449 
   10810   0.56480062            0   0.94164841   0.84677733   -4.4743671   -3.6275898 
   10820   0.56926983            0   0.94909958    0.8534778   -4.4780285   -3.6245507 
   10830   0.58155228            0   0.96957716   0.87189226   -4.4931114   -3.6212192 
   10840   0.59728252            0   0.99580296   0.89547581   -4.5133793   -3.6179035 
   10850   0.61039496            0    1.0176643   0.91513464   -4.5293666    -3.614232 
   10860   0.61741035            0    1.0293605   0.92565246   -4.5363819   -3.6107295 
   10870   0.61829933            0    1.0308427   0.92698527   -4.5353275   -3.6083422 
   10880   0.61575466            0    1.0266001   0.92317017   -4.5297835   -3.6066134 
   10890   0.61266291            0    1.0214455   0.91853487   -4.5242782   -3.6057433 
   10900   0.61041568            0    1.0176989   0.91516571   -4.5201663   -3.6050006 
   10910   0.60923272            0    1.0157266   0.91339215   -4.5180378   -3.6046457 
   10920   0.60906953            0    1.0154545   0.91314749   -4.5181065    -3.604959 
   10930   0.61002886            0     1.017054   0.91458577     -4.52009   -3.6055043 
   10940   0.61158824            0    1.0196538   0.91692368   -4.5232398   -3.6063161 
   10950   0.61280815            0    1.0216877   0.91875262     -4.52587   -3.6071174 
   10960   0.61245364            0    1.0210966   0.91822112    -4.527101   -3.6088799 
   10970   0.60931938            0    1.0158711   0.91352208   -4.5242948   -3.6107728 
   10980   0.60368569            0    1.0064785   0.90507577   -4.5178243   -3.6127486 
   10990    0.5968435            0   0.99507102   0.89481762   -4.5099117   -3.6150941 
   11000       0.5897            0   0.98316123   0.88410773   -4.5009976   -3.6168899 
   11010    0.5839492            0   0.97357335   0.87548583    -4.494656   -3.6191701 
   11020   0.58105803            0   0.96875313   0.87115125   -4.4919949   -3.6208436 
   11030    0.5811329            0   0.96887795   0.87126349    -4.492907   -3.6216435 
   11040   0.58437975            0   0.97429117   0.87613133   -4.4981949   -3.6220636 
   11050   0.58900766            0   0.98200692   0.88306973   -4.5051704   -3.6221007 
   11060   0.59217303            0   0.98728431   0.88781542   -4.5097945   -3.6219791 
   11070   0.59293751            0   0.98855887   0.88896156   -4.5106948   -3.6217333 
   11080   0.59184541            0    0.9867381   0.88732423   -4.5082618   -3.6209376 
   11090   0.59031196            0   0.98418148    0.8850252   -4.5047973   -3.6197721 
   11100   0.59129598            0   0.98582208   0.88650051   -4.5048893   -3.6183888 
   11110   0.59626983            0   0.99411458   0.89395754   -4.5101385   -3.6161809 
   11120   0.60329452            0    1.0058263   0.90448931   -4.5175746   -3.6130853 
   11130    0.6102875            0    1.0174852   0.91497353    -4.524585   -3.6096115 
   11140   0.61613482            0    1.0272339   0.92374012   -4.5291181    -3.605378 
   11150   0.62004198            0    1.0337481   0.92959794   -4.5310854   -3.6014874 
   11160   0.62141763            0    1.0360416   0.93166038   -4.5289265   -3.5972661 
   11170   0.62116538            0     1.035621   0.93128219   -4.5245991   -3.5933169 
   11180   0.62076812            0    1.0349587    0.9306866   -4.5209376    -3.590251 
   11190    0.6190743            0    1.0321347   0.92814714   -4.5152979   -3.5871507 
   11200   0.61540297            0    1.0260138   0.92264291   -4.5073928   -3.5847499 
   11210   0.61166216            0     1.019777    0.9170345   -4.4996316   -3.5825971 
   11220   0.60997772            0    1.0169687    0.9145091   -4.4948825   -3.5803734 
   11230   0.61059633            0    1.0180001   0.91543655   -4.4943421   -3.5789055 
   11240   0.61203681            0    1.0204016   0.91759618   -4.4951179   -3.5775217 
   11250   0.61202977            0    1.0203899   0.91758564     -4.49402   -3.5764344 
   11260   0.61038413            0    1.0176463    0.9151184   -4.4906948   -3.5755764 
   11270   0.61021284            0    1.0173607    0.9148616   -4.4894282   -3.5745666 
   11280   0.61370965            0    1.0231907    0.9201042    -4.494267   -3.5741628 
   11290   0.61902166            0     1.032047   0.92806823   -4.5025262    -3.574458 
   11300   0.62195038            0    1.0369298   0.93245911   -4.5075813   -3.5751222 
   11310   0.62014971            0    1.0339277   0.92975946   -4.5063238   -3.5765643 
   11320   0.61463354            0     1.024731   0.92148933   -4.5000849   -3.5785956 
   11330   0.60791058            0    1.0135223   0.91140994   -4.4927699   -3.5813599 
   11340   0.60171851            0    1.0031988   0.90212648   -4.4864314   -3.5843049 
   11350    0.5962771            0   0.99412671   0.89396844    -4.481745   -3.5877765 
   11360    0.5921887            0   0.98731043    0.8878389   -4.4795558   -3.5917169 
   11370   0.59091514            0   0.98518713   0.88592952   -4.4814379   -3.5955084 
   11380   0.59335382            0   0.98925295   0.88958572   -4.4882612   -3.5986755 
   11390   0.59896496            0   0.99860798   0.89799822   -4.5001874   -3.6021891 
   11400   0.60438763            0    1.0076488   0.90612816   -4.5121118   -3.6059836 
   11410   0.60751407            0    1.0128612   0.91081546   -4.5204759   -3.6096604 
   11420   0.60762222            0    1.0130416   0.91097762   -4.5249342   -3.6139566 
   11430   0.60459346            0    1.0079919   0.90643675     -4.52535   -3.6189132 
   11440   0.60010621            0    1.0005107   0.89970924   -4.5232576   -3.6235484 
   11450    0.5959126            0   0.99351901   0.89342197   -4.5219817   -3.6285597 
   11460   0.59288774            0    0.9884759   0.88888695   -4.5214711   -3.6325842 
   11470   0.59156888            0   0.98627705   0.88690964   -4.5234985   -3.6365889 
   11480   0.59052379            0   0.98453465   0.88534279   -4.5252214   -3.6398787 
   11490   0.58838875            0   0.98097507   0.88214183   -4.5251553   -3.6430134 
   11500   0.58638744            0   0.97763845   0.87914137   -4.5242593   -3.6451179 
   11510   0.58597208            0   0.97694595   0.87851865   -4.5258344   -3.6473157 
   11520   0.58652158            0   0.97786208   0.87934248    -4.528294   -3.6489515 
   11530   0.58740013            0   0.97932682   0.88065964   -4.5306094   -3.6499497 
   11540   0.58951966            0   0.98286055   0.88383735   -4.5345337   -3.6506964 
   11550   0.59304707            0   0.98874154   0.88912583   -4.5402645   -3.6511386 
   11560   0.59655252            0   0.99458589   0.89438136   -4.5454045   -3.6510231 
   11570   0.59727211            0   0.99578561   0.89546021   -4.5462859   -3.6508256 
   11580   0.59377876            0   0.98996143   0.89022281   -4.5407302   -3.6505074 
   11590   0.58802713            0   0.98037217   0.88159967   -4.5319857    -3.650386 
   11600   0.58349149            0   0.97281026   0.87479962   -4.5245498   -3.6497502 
   11610   0.58284871            0   0.97173859   0.87383593   -4.5227585   -3.6489226 
   11620   0.58658585            0   0.97796924   0.87943884   -4.5269289   -3.6474901 
   11630   0.59247358            0    0.9877854   0.88826602   -4.5338687   -3.6456027 
   11640   0.59689547            0   0.99515767   0.89489553   -4.5384749   -3.6435794 
   11650   0.59752665            0   0.99620999   0.89584183   -4.5372934   -3.6414515 
   11660   0.59510099            0   0.99216587   0.89220516   -4.5312923   -3.6390871 
   11670   0.59153791            0   0.98622543   0.88686322   -4.5232849   -3.6364216 
   11680   0.58834642            0   0.98090449   0.88207836   -4.5157878   -3.6337095 
   11690   0.58747095            0   0.97944489   0.88076582   -4.5112469   -3.6304811 
   11700   0.58983295            0   0.98338287   0.88430704   -4.5113105   -3.6270035 
   11710   0.59333596            0   0.98922317   0.88955894   -4.5123378   -3.6227789 
   11720   0.59536199            0   0.99260102   0.89259647   -4.5104721   -3.6178756 
   11730    0.5958855            0   0.99347383   0.89338134   -4.5071603    -3.613779 
   11740   0.59817732            0   0.99729479   0.89681734   -4.5053642   -3.6085468 
   11750     0.604376            0    1.0076294   0.90611072   -4.5094439   -3.6033332 
   11760   0.61227492            0    1.0207986   0.91795317   -4.5161782    -3.598225 
   11770   0.61922491            0    1.0323858   0.92837295   -4.5220608   -3.5936879 
   11780   0.62290448            0    1.0385205   0.93388954   -4.5237613   -3.5898718 
   11790    0.6215878            0    1.0363253   0.93191551   -4.5188403   -3.5869248 
   11800   0.61651026            0    1.0278599     0.924303   -4.5092636   -3.5849606 
   11810   0.61129197            0    1.0191598   0.91647948   -4.5008778   -3.5843983 
   11820   0.60944928            0    1.0160877   0.91371683   -4.4970238   -3.5833069 
   11830   0.61164092            0    1.0197416   0.91700265   -4.4997379   -3.5827353 
   11840   0.61528576            0    1.0258184   0.92246718   -4.5053682    -3.582901 
   11850   0.61707671            0    1.0288043   0.92515226   -4.5087334   -3.5835811 
   11860   0.61530547            0    1.0258512   0.92249673   -4.5068733   -3.5843766 
   11870   0.61175275            0    1.0199281   0.91717031   -4.5029051   -3.5857348 
   11880   0.60987958            0    1.0168051   0.91436196   -4.5012036   -3.5868417 
   11890   0.61023215            0    1.0173929   0.91489056   -4.5032476   -3.5883571 
   11900   0.61146732            0    1.0194522   0.91674238   -4.5062505   -3.5895082 
   11910     0.611821            0    1.0200419   0.91727263   -4.5080743   -3.5908017 
   11920   0.61011332            0    1.0171948    0.9147124   -4.5070357   -3.5923233 
   11930   0.60782842            0    1.0133853   0.91128675   -4.5049517   -3.5936649 
   11940   0.60744677            0     1.012749   0.91071456   -4.5062452   -3.5955306 
   11950   0.60915805            0    1.0156021   0.91328021    -4.510797   -3.5975168 
   11960    0.6098655            0    1.0167816   0.91434085   -4.5141234   -3.5997826 
   11970   0.60718088            0    1.0123057   0.91031593    -4.512577    -3.602261 
   11980   0.60274843            0    1.0049159   0.90367059   -4.5087584   -3.6050878 
   11990   0.59976723            0   0.99994554   0.89920103   -4.5070832   -3.6078821 
   12000   0.59971955            0   0.99986603   0.89912953   -4.5099014   -3.6107718 
   12010   0.60118966            0     1.002317    0.9013336   -4.5152874   -3.6139538 
   12020   0.60173577            0    1.0032275   0.90215235   -4.5190575   -3.6169051 
   12030   0.60002989            0    1.0003834   0.89959481   -4.5197489   -3.6201541 
   12040   0.59680901            0   0.99501352   0.89476591   -4.5178538   -3.6230879 
   12050   0.59407737            0   0.99045927    0.8906705   -4.5165321   -3.6258616 
   12060     0.593393            0   0.98931827   0.88964445    -4.518046   -3.6284015 
   12070   0.59465597            0   0.99142393   0.89153797   -4.5225247   -3.6309867 
   12080   0.59614038            0   0.99389876   0.89376346   -4.5270067   -3.6332432 
   12090   0.59578016            0    0.9932982   0.89322341   -4.5287192   -3.6354958 
   12100   0.59337901            0   0.98929495   0.88962348   -4.5272972   -3.6376738 
   12110   0.59127475            0   0.98578667   0.88646867   -4.5258116    -3.639343 
   12120   0.59149664            0   0.98615662   0.88680134   -4.5281917   -3.6413904 
   12130   0.59345688            0   0.98942478   0.88974023   -4.5322339   -3.6424937 
   12140    0.5945341            0   0.99122074   0.89135525   -4.5354241   -3.6440689 
   12150   0.59252892            0   0.98787766   0.88834898   -4.5338512   -3.6455022 
   12160   0.58846423            0   0.98110092     0.882255   -4.5288609   -3.6466059 
   12170   0.58570671            0   0.97650351   0.87812078   -4.5257912   -3.6476704 
   12180   0.58653756            0   0.97788873   0.87936644   -4.5273491   -3.6479826 
   12190   0.58976561            0    0.9832706   0.88420609   -4.5324775   -3.6482714 
   12200   0.59222523            0   0.98737135   0.88789368   -4.5359411   -3.6480474 
   12210   0.59270176            0   0.98816582   0.88860811   -4.5363137   -3.6477056 
   12220   0.59173061            0    0.9865467   0.88715212   -4.5335398   -3.6463877 
   12230   0.59009085            0   0.98381285   0.88469371   -4.5302425   -3.6455488 
   12240   0.58866662            0   0.98143834   0.88255842    -4.527197   -3.6446386 
   12250   0.58813389            0   0.98055016   0.88175973    -4.524434   -3.6426743 
   12260   0.58940625            0   0.98267147   0.88366731   -4.5237967   -3.6401294 
   12270   0.59311442            0   0.98885381   0.88922679   -4.5260023   -3.6367755 
   12280   0.59870148            0   0.99816869   0.89760319   -4.5306458   -3.6330426 
   12290   0.60435085            0    1.0075874   0.90607301   -4.5347935   -3.6287205 
   12300   0.60855325            0    1.0145938   0.91237346   -4.5364513   -3.6240779 
   12310   0.61078069            0    1.0183074   0.91571296   -4.5349005   -3.6191876 
   12320   0.61099958            0    1.0186724   0.91604112   -4.5304004   -3.6143593 
   12330    0.6104991            0    1.0178379   0.91529078   -4.5246804   -3.6093896 
   12340   0.61135221            0    1.0192603   0.91656981   -4.5213771   -3.6048073 
   12350   0.61378109            0    1.0233098    0.9202113   -4.5203829   -3.6001716 
   12360   0.61620918            0    1.0273579   0.92385161   -4.5205078   -3.5966561 
   12370   0.61747036            0    1.0294606   0.92574243   -4.5190076   -3.5932652 
   12380   0.61824153            0    1.0307463   0.92689861   -4.5169233   -3.5900247 
   12390   0.61967369            0     1.033134   0.92904578    -4.516488   -3.5874422 
   12400   0.62091706            0     1.035207    0.9309099   -4.5166708   -3.5857609 
   12410   0.61965979            0    1.0331109   0.92902494   -4.5136465   -3.5846215 
   12420   0.61544813            0    1.0260891   0.92271061   -4.5068373   -3.5841266 
   12430   0.61064021            0    1.0180732   0.91550234   -4.4996938   -3.5841915 
   12440   0.60728522            0    1.0124797   0.91047236   -4.4950807   -3.5846083 
   12450   0.60527263            0    1.0091243     0.907455    -4.492758    -3.585303 
   12460   0.60401037            0    1.0070198   0.90556255   -4.4916827   -3.5861202 
   12470   0.60344915            0    1.0060841   0.90472114   -4.4920674   -3.5873463 
   12480   0.60361627            0    1.0063627   0.90497169   -4.4933333   -3.5883616 
   12490   0.60390905            0    1.0068509   0.90541064   -4.4955759   -3.5901653 
   12500   0.60323352            0    1.0057246   0.90439785   -4.4967239    -3.592326 
   12510    0.6013155            0    1.0025268   0.90152227   -4.4959955   -3.5944732 
   12520   0.59898716            0   0.99864499    0.8980315   -4.4953489   -3.5973174 
   12530   0.59701903            0   0.99536367   0.89508078   -4.4958721   -3.6007913 
   12540   0.59481444            0   0.99168813   0.89177555   -4.4967713   -3.6049958 
   12550   0.59068061            0   0.98479611   0.88557791   -4.4947945   -3.6092166 
   12560   0.58412884            0   0.97387285   0.87575516   -4.4903616   -3.6146064 
   12570   0.57737523            0   0.96261308   0.86562981   -4.4858007   -3.6201708 
   12580   0.57436779            0   0.95759901   0.86112091   -4.4868129    -3.625692 
   12590   0.57713899            0   0.96221922   0.86527563   -4.4958763   -3.6306006 
   12600   0.58354225            0   0.97289489   0.87487573   -4.5094674   -3.6345917 
   12610   0.58972269            0   0.98319905   0.88414174   -4.5231124   -3.6389706 
   12620   0.59317227            0   0.98895027   0.88931353   -4.5322564   -3.6429429 
   12630   0.59247879            0   0.98779408   0.88827382   -4.5356316   -3.6473578 
   12640   0.58730173            0   0.97916276   0.88051211   -4.5314004   -3.6508883 
   12650   0.57946409            0   0.96609567   0.86876153   -4.5229796   -3.6542181 
   12660   0.57262537            0     0.954694   0.85850858    -4.515369   -3.6568604 
   12670   0.57033898            0   0.95088209   0.85508072   -4.5138898   -3.6588091 
   12680   0.57418031            0   0.95728644   0.86083983   -4.5206422   -3.6598024 
   12690   0.58248057            0   0.97112481   0.87328399   -4.5330986   -3.6598146 
   12700   0.59140453            0   0.98600304   0.88666323   -4.5460924   -3.6594292 
   12710   0.59834699            0   0.99757768   0.89707173   -4.5562706   -3.6591988 
   12720   0.60264635            0    1.0047457   0.90351754   -4.5625979   -3.6590803 
   12730    0.6048541            0    1.0084265   0.90682751     -4.56585   -3.6590225 
   12740   0.60517569            0    1.0089626   0.90730965   -4.5659899   -3.6586802 
   12750   0.60262506            0    1.0047102   0.90348562   -4.5619821   -3.6584965 
   12760   0.59668105            0   0.99480018   0.89457406   -4.5529572   -3.6583832 
   12770   0.58878176            0    0.9816303   0.88273105     -4.54064    -3.657909 
   12780    0.5816048            0   0.96966472     0.871971   -4.5293027   -3.6573317 
   12790   0.57755502            0   0.96291284   0.86589937   -4.5219121   -3.6560128 
   12800   0.57866547            0   0.96476419    0.8675642   -4.5212672    -3.653703 
   12810   0.58463445            0   0.97471581    0.8765132   -4.5268317   -3.6503185 
   12820   0.59281346            0   0.98835205   0.88877558   -4.5346006    -3.645825 
   12830   0.60008404            0    1.0004737   0.89967599   -4.5399738   -3.6402978 
   12840   0.60459767            0    1.0079989   0.90644305   -4.5401827   -3.6337397 
   12850   0.60679257            0    1.0116583   0.90973376   -4.5363021   -3.6265683 
   12860   0.60872385            0    1.0148782   0.91262923   -4.5323371   -3.6197078 
   12870   0.61094398            0    1.0185797   0.91595776   -4.5286114   -3.6126537 
   12880   0.61176321            0    1.0199455   0.91718599   -4.5233701   -3.6061841 
   12890   0.61038518            0     1.017648   0.91511997    -4.515895    -3.600775 
   12900   0.60803315            0    1.0137267    0.9115937   -4.5074427    -3.595849 
   12910   0.60558514            0    1.0096453   0.90792352   -4.4999151   -3.5919916 
   12920   0.60312509            0    1.0055438   0.90423529   -4.4930974   -3.5888621 
   12930   0.60073801            0     1.001564   0.90065647   -4.4864544   -3.5857979 
   12940   0.59843416            0     0.997723   0.89720241   -4.4802883   -3.5830858 
   12950   0.59708786            0   0.99547842   0.89518397    -4.475796    -3.580612 
   12960   0.59828989            0   0.99748248   0.89698612   -4.4750831    -3.578097 
   12970   0.60287755            0    1.0051311   0.90386417   -4.4798938   -3.5760297 
   12980   0.60979463            0    1.0166634    0.9142346    -4.488201   -3.5739664 
   12990   0.61653783            0    1.0279059   0.92434434   -4.4966663    -3.572322 
   13000    0.6218812            0    1.0368144   0.93235539   -4.5040404    -3.571685 
   13010   0.62690622            0    1.0451923   0.93988915   -4.5118126   -3.5719234 
   13020   0.63123141            0    1.0524033    0.9463737   -4.5191064   -3.5727327 
   13030   0.63238852            0    1.0543325   0.94810849   -4.5222229   -3.5741144 
   13040   0.62979044            0    1.0500009   0.94421331   -4.5209703    -3.576757 
   13050   0.62571412            0    1.0432048    0.9381019   -4.5183552   -3.5802533 
   13060   0.62305873            0    1.0387777   0.93412081   -4.5183578    -3.584237 
   13070   0.62282435            0    1.0383869    0.9337694   -4.5225359   -3.5887665 
   13080   0.62296325            0    1.0386185   0.93397765   -4.5275273   -3.5935497 
   13090   0.62058691            0    1.0346566   0.93041492   -4.5291822   -3.5987673 
   13100   0.61543975            0    1.0260751   0.92269804   -4.5266065   -3.6039085 
   13110   0.60908324            0    1.0154774   0.91316805   -4.5225862   -3.6094182 
   13120   0.60254409            0    1.0045752   0.90336423   -4.5175101   -3.6141458 
   13130   0.59640362            0   0.99433764   0.89415813   -4.5122999   -3.6181418 
   13140   0.59096152            0   0.98526445   0.88599906   -4.5073102   -3.6213111 
   13150   0.58726683            0   0.97910457   0.88045979   -4.5042598      -3.6238 
   13160   0.58689239            0   0.97848031   0.87989842   -4.5056039   -3.6257054 
   13170   0.58911178            0   0.98218052   0.88322583   -4.5099114   -3.6266855 
   13180   0.59131626            0   0.98585588    0.8865309   -4.5137828   -3.6272519 
   13190    0.5921654            0   0.98727159   0.88780398   -4.5155543   -3.6277503 
   13200    0.5931577            0   0.98892597   0.88929168   -4.5168541   -3.6275624 
   13210    0.5963821            0   0.99430176   0.89412586   -4.5215688    -3.627443 
   13220   0.60066492            0    1.0014422   0.90054688   -4.5278173   -3.6272704 
   13230   0.60297175            0    1.0052882    0.9040054   -4.5310331   -3.6270277 
   13240   0.60272001            0    1.0048685   0.90362798   -4.5305218   -3.6268938 
   13250   0.60121812            0    1.0023645   0.90137627   -4.5282405   -3.6268642 
   13260   0.59905114            0   0.99875165   0.89812742   -4.5250112   -3.6268837 
   13270   0.59692136            0   0.99520084   0.89493435   -4.5219356   -3.6270013 
   13280   0.59648239            0   0.99446897   0.89427622   -4.5211364   -3.6268602 
   13290    0.5977709            0    0.9966172   0.89620801   -4.5232572   -3.6270491 
   13300   0.59873648            0   0.99822705   0.89765567   -4.5242792   -3.6266236 
   13310   0.59858407            0   0.99797294   0.89742717    -4.523467   -3.6260399 
   13320   0.59802857            0    0.9970468   0.89659434   -4.5225237   -3.6259294 
   13330   0.59728135            0   0.99580102   0.89547406   -4.5210427   -3.6255686 
   13340   0.59612561            0   0.99387415   0.89374133   -4.5190496   -3.6253083 
   13350   0.59484734            0   0.99174298   0.89182488   -4.5164779    -3.624653 
   13360   0.59350559            0   0.98950598   0.88981326   -4.5135025   -3.6236893 
   13370   0.59244867            0   0.98774386   0.88822866   -4.5105866    -3.622358 
   13380   0.59326662            0   0.98910757   0.88945499   -4.5107573   -3.6213023 
   13390   0.59733429            0   0.99588928   0.89555344   -4.5149584    -3.619405 
   13400   0.60361657            0    1.0063632   0.90497215   -4.5221649   -3.6171927 
   13410   0.60961968            0    1.0163718   0.91397231   -4.5287528   -3.6147805 
   13420   0.61354812            0    1.0229213   0.91986201   -4.5318208   -3.6119588 
   13430   0.61437304            0    1.0242967   0.92109879   -4.5302699   -3.6091711 
   13440   0.61253681            0    1.0212353   0.91834581   -4.5248903   -3.6065445 
   13450   0.60935329            0    1.0159276   0.91357293   -4.5172358   -3.6036628 
   13460   0.60444454            0    1.0077436   0.90621347   -4.5070626   -3.6008491 
   13470   0.59795738            0   0.99692811   0.89648761    -4.494772   -3.5982844 
   13480   0.59356583            0   0.98960641   0.88990357   -4.4855319   -3.5956283 
   13490   0.59444607            0   0.99107398   0.89122328   -4.4832327   -3.5920094 
   13500   0.60056337            0    1.0012729   0.90039464   -4.4878254   -3.5874308 
   13510   0.61069851            0    1.0181704   0.91558975   -4.4983061   -3.5827164 
   13520     0.621968            0    1.0369592   0.93248553   -4.5102838   -3.5777983 
   13530   0.63026512            0    1.0507923   0.94492498   -4.5182092   -3.5732842 
   13540   0.63386707            0    1.0567976    0.9503252   -4.5196281   -3.5693029 
   13550   0.63326406            0    1.0557922   0.94942114   -4.5156069   -3.5661858 
   13560   0.62883907            0    1.0484148   0.94278697   -4.5070647   -3.5642777 
   13570   0.62119007            0    1.0356622   0.93131921   -4.4948412   -3.5635219 
   13580   0.61361125            0    1.0230266   0.91995667   -4.4834064   -3.5634497 
   13590   0.61156535            0    1.0196156   0.91688935   -4.4805271   -3.5636377 
   13600   0.61578116            0    1.0266443    0.9232099   -4.4869609    -3.563751 
   13610    0.6218547            0    1.0367703   0.93231566   -4.4971117    -3.564796 
   13620   0.62473342            0    1.0415697   0.93663159   -4.5033071   -3.5666755 
   13630   0.62401369            0    1.0403698   0.93555253   -4.5051649   -3.5696123 
   13640   0.62156152            0    1.0362815   0.93187611   -4.5052957   -3.5734195 
   13650   0.61648878            0    1.0278241   0.92427081    -4.502826   -3.5785552 
   13660   0.60868686            0    1.0148165   0.91257377   -4.4970416   -3.5844678 
   13670   0.59999024            0    1.0003173   0.89953536   -4.4902215   -3.5906862 
   13680   0.59219456            0   0.98732021    0.8878477   -4.4843715   -3.5965238 
   13690   0.58618885            0   0.97730735   0.87884364   -4.4809041   -3.6020605 
   13700   0.58239837            0   0.97098778   0.87316076   -4.4803143   -3.6071535 
   13710   0.58094906            0   0.96857146   0.87098788   -4.4825062   -3.6115183 
   13720   0.58147544            0   0.96944905   0.87177706   -4.4864676   -3.6146905 
   13730   0.58384511            0   0.97339981   0.87532978   -4.4925378    -3.617208 
   13740   0.58825434            0   0.98075098   0.88194032    -4.500948   -3.6190077 
   13750   0.59384271            0   0.99006803   0.89031868    -4.510672   -3.6203533 
   13760   0.59840043            0   0.99766678   0.89715185   -4.5188411   -3.6216893 
   13770   0.60044354            0    1.0010731   0.90021498   -4.5228066   -3.6225917 
   13780   0.60053678            0    1.0012285   0.90035477   -4.5237165   -3.6233617 
   13790   0.59984599            0    1.0000768   0.89931911   -4.5240012   -3.6246821 
   13800   0.59860091            0   0.99800101   0.89745241   -4.5231435    -3.625691 
   13810   0.59712448            0   0.99553948   0.89523888   -4.5215904   -3.6263515 
   13820   0.59694817            0   0.99524553   0.89497454   -4.5219063   -3.6269318 
   13830   0.59905389            0   0.99875624   0.89813154   -4.5254563   -3.6273247 
   13840   0.60105496            0    1.0020925   0.90113165   -4.5286843   -3.6275526 
   13850   0.59934221            0   0.99923693   0.89856381   -4.5266601   -3.6280963 
   13860   0.59324854            0   0.98907742   0.88942787   -4.5181652   -3.6287373 
   13870   0.58640411            0   0.97766623   0.87916636   -4.5079024   -3.6287361 
   13880   0.58361787            0   0.97302096   0.87498909   -4.5039772   -3.6289881 
   13890   0.58526186            0   0.97576186   0.87745385   -4.5055835   -3.6281296 
   13900   0.58862356            0   0.98136655   0.88249387   -4.5096027   -3.6271088 
   13910   0.59262639            0   0.98804016   0.88849511   -4.5144851   -3.6259899 
   13920   0.59776854            0   0.99661327   0.89620448    -4.520786   -3.6245816 
   13930   0.60352288            0     1.006207   0.90483167   -4.5277755   -3.6229438 
   13940   0.60810022            0    1.0138385   0.91169426   -4.5334892    -3.621795 
   13950   0.60993535            0     1.016898   0.91444557   -4.5351046    -3.620659 
   13960   0.60888093            0    1.0151401   0.91286474   -4.5328636   -3.6199989 
   13970    0.6060972            0     1.010499   0.90869122   -4.5282766   -3.6195854 
   13980   0.60242276            0    1.0043729   0.90318233   -4.5223177   -3.6191353 
   13990   0.59876029            0   0.99826674   0.89769137   -4.5171031   -3.6194118 
   14000   0.59676031            0   0.99493233    0.8946929   -4.5137723   -3.6190794 
   14010   0.59628539            0   0.99414052   0.89398087   -4.5126314   -3.6186505 
   14020    0.5957269            0    0.9932094   0.89314355   -4.5114672   -3.6183236 
   14030   0.59560989            0   0.99301432   0.89296813   -4.5110713   -3.6181032 
   14040    0.5978923            0   0.99681961   0.89639003   -4.5134865   -3.6170964 
   14050   0.60260206            0    1.0046718   0.90345113   -4.5199296   -3.6164784 
   14060   0.60702613            0    1.0120477   0.91008392   -4.5260696   -3.6159857 
   14070   0.60793535            0    1.0135636   0.91144708   -4.5270556   -3.6156085 
   14080    0.6042043            0    1.0073431   0.90585329   -4.5215101   -3.6156568 
   14090   0.59749381            0   0.99615524    0.8957926   -4.5118852   -3.6160926 
   14100   0.59051916            0   0.98452694   0.88533585   -4.5014863   -3.6161505 
   14110   0.58694262            0   0.97856405   0.87997372   -4.4959954   -3.6160217 
   14120   0.59037877            0   0.98429287   0.88512537   -4.5005231   -3.6153978 
   14130   0.60005979            0    1.0004333   0.89963964   -4.5138658   -3.6142262 
   14140   0.61117452            0     1.018964    0.9163034   -4.5290324    -3.612729 
   14150   0.61870579            0    1.0315203   0.92759465   -4.5386532   -3.6110585 
   14160   0.62135189            0     1.035932   0.93156183   -4.5409654   -3.6094036 
   14170   0.62164255            0    1.0364166   0.93199759   -4.5401325   -3.6081349 
   14180   0.62193266            0    1.0369002   0.93243255   -4.5392243   -3.6067917 
   14190   0.62016932            0    1.0339604   0.92978885   -4.5360334   -3.6062445 
   14200   0.61470374            0     1.024848   0.92159459   -4.5275162   -3.6059217 
   14210   0.60709681            0    1.0121656    0.9101899   -4.5163424   -3.6061525 
   14220    0.5980823            0   0.99713638   0.89667489   -4.5027991   -3.6061242 
   14230   0.58774461            0   0.97990114    0.8811761    -4.487673   -3.6064969 
   14240   0.57851578            0   0.96451464   0.86733979   -4.4734024   -3.6060626 
   14250   0.57337907            0   0.95595059   0.85963857   -4.4649343   -3.6052957 
   14260   0.57258684            0   0.95462977   0.85845082   -4.4623149   -3.6038641 
   14270   0.57538552            0   0.95929578   0.86264673   -4.4641819   -3.6015352 
   14280   0.58212442            0   0.97053103   0.87275003   -4.4706978   -3.5979478 
   14290   0.59237053            0   0.98761358   0.88811151   -4.4820019   -3.5938903 
   14300   0.60437851            0    1.0076336   0.90611447   -4.4955866   -3.5894722 
   14310   0.61604655            0    1.0270868   0.92360779   -4.5088494   -3.5852417 
   14320   0.62393813            0    1.0402438   0.93543924   -4.5170084   -3.5815691 
   14330   0.62587321            0      1.04347   0.93834042   -4.5169846   -3.5786442 
   14340   0.62439516            0    1.0410058   0.93612445   -4.5129871   -3.5768627 
   14350   0.62328207            0      1.03915   0.93445564   -4.5099983   -3.5755427 
   14360    0.6232386            0    1.0390775   0.93439047     -4.50928   -3.5748896 
   14370   0.62331855            0    1.0392108   0.93451033   -4.5098231   -3.5753128 
   14380     0.623199            0    1.0390115    0.9343311    -4.510449   -3.5761179 
   14390   0.62259165            0    1.0379989   0.93342053    -4.511205   -3.5777845 
   14400   0.62113772            0    1.0355749   0.93124073   -4.5111892   -3.5799485 
   14410   0.61998067            0    1.0336458   0.92950602    -4.512153   -3.5826469 
   14420   0.62068618            0    1.0348221   0.93056375    -4.517041   -3.5864773 
   14430   0.62282482            0    1.0383877   0.93377011   -4.5249393   -3.5911691 
   14440   0.62421324            0    1.0407025    0.9358517   -4.5321237    -3.596272 
   14450   0.62343698            0    1.0394083   0.93468789   -4.5366148   -3.6019269 
   14460   0.62062291            0    1.0347166   0.93046889   -4.5387317   -3.6082628 
   14470    0.6151017            0    1.0255115   0.92219122   -4.5370987   -3.6149075 
   14480   0.60520448            0    1.0090106   0.90735281    -4.528824   -3.6214711 
   14490   0.59334332            0   0.98923544   0.88956997   -4.5164187   -3.6268487 
   14500   0.58550896            0   0.97617383   0.87782431    -4.509743   -3.6319187 
   14510    0.5823263            0   0.97086762   0.87305271   -4.5085781   -3.6355254 
   14520   0.58013636            0    0.9672165   0.86976943   -4.5081047   -3.6383353 
   14530   0.57813018            0   0.96387175   0.86676168   -4.5073464   -3.6405847 
   14540    0.5774162            0   0.96268138   0.86569123   -4.5078209   -3.6421296 
   14550   0.57842488            0   0.96436308    0.8672035   -4.5105302   -3.6433267 
   14560   0.58011313            0   0.96717776    0.8697346    -4.512929   -3.6431944 
   14570   0.58159794            0   0.96965327   0.87196071   -4.5147639   -3.6428032 
   14580   0.58312379            0   0.97219721   0.87424835   -4.5159756   -3.6417272 
   14590   0.58618023            0   0.97729298   0.87883071   -4.5188717    -3.640041 
   14600   0.59163651            0   0.98638981   0.88701104   -4.5250976   -3.6380865 
   14610    0.5981462            0   0.99724291   0.89677069   -4.5328745   -3.6361038 
   14620   0.60353512            0    1.0062274   0.90485003   -4.5382835   -3.6334334 
   14630    0.6063696            0    1.0109532   0.90909963      -4.5404   -3.6313003 
   14640   0.60688113            0     1.011806   0.90986653   -4.5389286   -3.6290621 
   14650   0.60602947            0    1.0103861   0.90858968   -4.5357205   -3.6271309 
   14660   0.60448986            0    1.0078192   0.90628143   -4.5318428   -3.6255613 
   14670   0.60260562            0    1.0046778   0.90345647    -4.526933   -3.6234765 
   14680   0.60083267            0    1.0017219   0.90079839   -4.5230889   -3.6222905 
   14690   0.59930037            0   0.99916717   0.89850108   -4.5192173   -3.6207162 
   14700   0.59730279            0   0.99583677   0.89550621   -4.5142537   -3.6187475 
   14710   0.59445187            0   0.99108364   0.89123197   -4.5075446   -3.6163126 
   14720   0.59229992            0   0.98749587   0.88800566   -4.5019755   -3.6139698 
   14730   0.59244703            0   0.98774113   0.88822621   -4.4996537   -3.6114275 
   14740   0.59441215            0   0.99101743   0.89117242    -4.499567   -3.6083945 
   14750   0.59751969            0   0.99619839    0.8958314   -4.5007149   -3.6048836 
   14760    0.6014496            0    1.0027504   0.90172331   -4.5027131   -3.6009898 
   14770   0.60501918            0    1.0087017   0.90707501   -4.5042901   -3.5972151 
   14780   0.60799106            0    1.0136565    0.9115306   -4.5048264   -3.5932958 
   14790   0.61239254            0    1.0209947   0.91812952   -4.5068368   -3.5887073 
   14800   0.61849964            0    1.0311766   0.92728558   -4.5117401   -3.5844545 
   14810   0.62333699            0    1.0392416   0.93453799    -4.515651    -3.581113 
   14820   0.62455675            0    1.0412752   0.93636671   -4.5142205   -3.5778538 
   14830   0.62209367            0    1.0371687   0.93267394   -4.5081724   -3.5754984 
   14840   0.61816745            0    1.0306228   0.92678755   -4.5002144   -3.5734268 
   14850    0.6153597            0    1.0259417   0.92257803   -4.4947847   -3.5722067 
   14860   0.61527686            0    1.0258035   0.92245383   -4.4937948    -3.571341 
   14870     0.618208            0    1.0306904   0.92684835   -4.4975515   -3.5707031 
   14880   0.62199375            0    1.0370021   0.93252413     -4.50298   -3.5704559 
   14890   0.62341403            0      1.03937   0.93465348   -4.5056545    -3.571001 
   14900   0.62114192            0    1.0355819   0.93124702   -4.5038189   -3.5725719 
   14910   0.61644481            0    1.0277508   0.92420488   -4.4991098   -3.5749049 
   14920   0.61169342            0    1.0198291   0.91708135   -4.4956613   -3.5785799 
   14930   0.60762415            0    1.0130448   0.91098051   -4.4941334   -3.5831529 
   14940   0.60306232            0    1.0054392   0.90414119   -4.4930132    -3.588872 
   14950    0.5988877            0   0.99847916   0.89788239   -4.4934197   -3.5955373 
   14960   0.59749743            0   0.99616127   0.89579802   -4.4984168   -3.6026188 
   14970   0.59943476            0   0.99939123   0.89870257   -4.5086683   -3.6099657 
   14980   0.60181658            0    1.0033623   0.90227351   -4.5201715    -3.617898 
   14990   0.60192677            0     1.003546   0.90243871   -4.5275221   -3.6250834 
   15000   0.60011765            0    1.0005298   0.89972638    -4.531742   -3.6320156 
   15010   0.59781794            0   0.99669564   0.89627855   -4.5340052   -3.6377267 
   15020   0.59619726            0    0.9939936   0.89384875    -4.536066   -3.6422173 
   15030   0.59701889            0   0.99536343   0.89508057   -4.5414232   -3.6463426 
   15040   0.60053762            0      1.00123   0.90035603    -4.549899    -3.649543 
   15050   0.60360486            0    1.0063437   0.90495458   -4.5573461   -3.6523915 
   15060   0.60177987            0    1.0033011   0.90221847   -4.5570753   -3.6548569 
   15070   0.59311101            0   0.98884813   0.88922168   -4.5465559   -3.6573342 
   15080   0.58053779            0   0.96788578   0.87037129   -4.5293955   -3.6590242 
   15090   0.57036176            0   0.95092006   0.85511486   -4.5152938   -3.6601789 
   15100   0.56704095            0   0.94538354   0.85013615   -4.5102971   -3.6601609 
   15110   0.57020956            0   0.95066632   0.85488669   -4.5143385   -3.6594518 
   15120   0.57660349            0   0.96132643   0.86447279    -4.522264   -3.6577912 
   15130   0.58320646            0   0.97233504   0.87437229     -4.52984   -3.6554677 
   15140    0.5896315            0     0.983047   0.88400502   -4.5372132   -3.6532082 
   15150    0.5971864            0   0.99564271   0.89533171    -4.545631   -3.6502993 
   15160   0.60529981            0    1.0091696   0.90749574   -4.5547832   -3.6472875 
   15170   0.61124057            0    1.0190742   0.91640243   -4.5609142   -3.6445118 
   15180   0.61314322            0    1.0222463   0.91925497   -4.5618253   -3.6425703 
   15190   0.61174438            0    1.0199141   0.91715776   -4.5577145   -3.6405567 
   15200   0.60936909            0     1.015954   0.91359661   -4.5525408   -3.6389442 
   15210   0.60722616            0    1.0123812   0.91038383   -4.5480253   -3.6376414 
   15220   0.60431652            0    1.0075302   0.90602154    -4.542616   -3.6365945 
   15230   0.59959057            0     0.999651   0.89893616   -4.5344399   -3.6355037 
   15240   0.59585745            0   0.99342705   0.89333928   -4.5279551   -3.6346159 
   15250   0.59545167            0   0.99275053   0.89273091   -4.5257204   -3.6329894 
   15260   0.59616096            0   0.99393308   0.89379432   -4.5251631   -3.6313687 
   15270   0.59588166            0   0.99346743   0.89337559   -4.5235656     -3.63019 
   15280   0.59529301            0   0.99248601   0.89249304   -4.5211736   -3.6286806 
   15290   0.59481789            0   0.99169389   0.89178073   -4.5187785   -3.6269978 
   15300    0.5938155            0   0.99002268    0.8902779   -4.5145541   -3.6242762 
   15310   0.59296753            0   0.98860891   0.88900656   -4.5103924   -3.6213858 
   15320     0.594365            0   0.99093882   0.89110173   -4.5091082   -3.6180065 
   15330   0.59855913            0   0.99793135   0.89738977   -4.5114515   -3.6140617 
   15340   0.60311491            0    1.0055269   0.90422003   -4.5138081    -3.609588 
   15350   0.60655735            0    1.0112662   0.90938111   -4.5140576   -3.6046765 
   15360   0.60921294            0    1.0156936   0.91336251    -4.512669   -3.5993065 
   15370    0.6123024            0    1.0208445   0.91799437   -4.5119258   -3.5939315 
   15380   0.61694415            0    1.0285833   0.92495352   -4.5134355    -3.588482 
   15390   0.62160303            0    1.0363507   0.93193834   -4.5150776   -3.5831393 
   15400   0.62394121            0    1.0402489   0.93544386   -4.5140787   -3.5786348 
   15410   0.62343639            0    1.0394073     0.934687    -4.509783    -3.575096 
   15420   0.62132484            0    1.0358869   0.93152127    -4.503528   -3.5720068 
   15430   0.61972058            0    1.0332122   0.92911608   -4.4985389   -3.5694228 
   15440   0.62040259            0    1.0343493   0.93013859    -4.497698   -3.5675594 
   15450   0.62327843            0    1.0391439   0.93445019   -4.5006773   -3.5662271 
   15460    0.6261168            0    1.0438761   0.93870561   -4.5036527   -3.5649471 
   15470   0.62622038            0    1.0440488   0.93886091   -4.5036412   -3.5647803 
   15480   0.62281848            0    1.0383771    0.9337606   -4.4994942   -3.5657336 
   15490   0.61697135            0    1.0286286    0.9249943   -4.4926107   -3.5676164 
   15500    0.6099155            0     1.016865   0.91441581   -4.4847106   -3.5702948 
   15510   0.60324291            0    1.0057403   0.90441194   -4.4781692   -3.5737573 
   15520   0.59910559            0   0.99884244   0.89820906   -4.4758368   -3.5776277 
   15530   0.59833264            0   0.99755375   0.89705021   -4.4796754   -3.5826252 
   15540    0.5997467            0    0.9999113   0.89917023    -4.487135   -3.5879648 
   15550   0.60125218            0    1.0024213   0.90142733   -4.4954932   -3.5940658 
   15560   0.60131962            0    1.0025337   0.90152844   -4.5035062   -3.6019777 
   15570   0.59900625            0   0.99867681   0.89806012   -4.5085895   -3.6105294 
   15580   0.59361181            0   0.98968308   0.88997251   -4.5089748   -3.6190023 
   15590   0.58624301            0   0.97739765   0.87892483   -4.5055078   -3.6265829 
   15600   0.57918403            0   0.96562875   0.86834165   -4.5012906   -3.6329489 
   15610    0.5739297            0   0.95686862   0.86046411   -4.4985266   -3.6380625 
   15620   0.57142436            0   0.95269165   0.85670797   -4.4983049   -3.6415969 
   15630   0.57333076            0   0.95587005   0.85956614   -4.5033154   -3.6437493 
   15640   0.58068611            0   0.96813306   0.87059365   -4.5156129   -3.6450192 
   15650   0.59088909            0   0.98514369   0.88589047   -4.5312538   -3.6453633 
   15660   0.60044117            0    1.0010691   0.90021142   -4.5453515     -3.64514 
   15670   0.60767516            0    1.0131298   0.91105699   -4.5567356   -3.6456786 
   15680   0.61152012            0    1.0195402   0.91682154   -4.5628899   -3.6460684 
   15690   0.61101638            0    1.0187004   0.91606631   -4.5629157   -3.6468494 
   15700   0.60692675            0    1.0118821   0.90993494   -4.5579377   -3.6480027 
   15710   0.60214282            0    1.0039062   0.90276262    -4.551515   -3.6487524 
   15720    0.5992392            0   0.99906519   0.89840937   -4.5483841   -3.6499747 
   15730   0.59818249            0   0.99730342    0.8968251   -4.5475647   -3.6507396 
   15740   0.59803178            0   0.99705215   0.89659914   -4.5480329   -3.6514338 
   15750   0.59904756            0   0.99874568   0.89812205   -4.5502309   -3.6521088 
   15760   0.60114347            0      1.00224   0.90126434   -4.5541532   -3.6528888 
   15770   0.60323563            0    1.0057281   0.90440101   -4.5578585   -3.6534575 
   15780    0.6043071            0    1.0075145   0.90600741   -4.5604149   -3.6544075 
   15790    0.6028693            0    1.0051174    0.9038518    -4.559725   -3.6558732 
   15800   0.59751314            0   0.99618746   0.89582157   -4.5530519   -3.6572304 
   15810   0.58947938            0    0.9827934   0.88377697   -4.5425855   -3.6588086 
   15820   0.58168277            0   0.96979472    0.8720879   -4.5317745   -3.6596866 
   15830   0.57548795            0   0.95946657   0.86280031   -4.5229453    -3.660145 
   15840   0.57091788            0   0.95184725   0.85594864   -4.5157205   -3.6597719 
   15850   0.56804649            0   0.94705999    0.8516437   -4.5101193   -3.6584756 
   15860   0.56700644            0     0.945326    0.8500844   -4.5065244     -3.65644 
   15870   0.56840349            0    0.9476552   0.85217893   -4.5053541   -3.6531752 
   15880   0.57383093            0   0.95670394   0.86031602   -4.5087912   -3.6484752 
   15890   0.58383629            0    0.9733851   0.87531655    -4.517751   -3.6424345 
   15900   0.59610349            0   0.99383727   0.89370816   -4.5291737   -3.6354656 
   15910   0.60639357            0    1.0109931   0.90913556   -4.5372091   -3.6280735 
   15920   0.61137797            0    1.0193032   0.91660843   -4.5378925   -3.6212841 
   15930   0.61030311            0    1.0175112   0.91499693   -4.5301621   -3.6151652 
   15940   0.60517224            0    1.0089569   0.90730448   -4.5173985    -3.610094 
   15950   0.60008781            0      1.00048   0.89968165   -4.5051907    -3.605509 
   15960   0.59893757            0   0.99856231   0.89795715   -4.4997252   -3.6017681 
   15970   0.60282788            0    1.0050483    0.9037897   -4.5026235   -3.5988338 
   15980   0.60967408            0    1.0164625   0.91405387    -4.510659   -3.5966051 
   15990   0.61530768            0    1.0258549   0.92250004   -4.5170791    -3.594579 
   16000   0.61689435            0    1.0285003   0.92487886   -4.5186916   -3.5938127 
   16010    0.6161858            0    1.0273189   0.92381656   -4.5170354   -3.5932188 
   16020   0.61634533            0    1.0275849   0.92405573   -4.5172841   -3.5932284 
   16030   0.61679312            0    1.0283315   0.92472709   -4.5183915   -3.5936644 
   16040   0.61547167            0    1.0261283    0.9227459   -4.5175945   -3.5948486 
   16050   0.61203789            0    1.0204035   0.91759781   -4.5134936   -3.5958958 
   16060   0.60781031            0    1.0133551    0.9112596   -4.5087668   -3.5975072 
   16070   0.60457706            0    1.0079646   0.90641216   -4.5053211    -3.598909 
   16080   0.60328782            0    1.0058151   0.90447926   -4.5048349   -3.6003557 
   16090   0.60353055            0    1.0062198   0.90484317   -4.5070437   -3.6022005 
   16100    0.6041144            0    1.0071932   0.90571852   -4.5100674   -3.6043489 
   16110   0.60398395            0    1.0069757   0.90552293   -4.5120551   -3.6065321 
   16120   0.60302744            0     1.005381   0.90408889   -4.5127291   -3.6086402 
   16130   0.60185022            0    1.0034183   0.90232394   -4.5129707   -3.6106468 
   16140   0.60047265            0    1.0011216   0.90025863   -4.5132173   -3.6129587 
   16150   0.59866598            0   0.99810951   0.89754997   -4.5126508   -3.6151008 
   16160   0.59696758            0    0.9952779   0.89500365    -4.512295   -3.6172913 
   16170   0.59596967            0   0.99361415   0.89350752   -4.5122937   -3.6187862 
   16180   0.59504217            0   0.99206781   0.89211697   -4.5129062   -3.6207892 
   16190   0.59283363            0   0.98838567   0.88880582   -4.5113804   -3.6225746 
   16200    0.5897124            0    0.9831819   0.88412632   -4.5084158   -3.6242895 
   16210   0.58730415            0   0.97916681   0.88051575   -4.5059756   -3.6254599 
   16220   0.58595109            0   0.97691095   0.87848717   -4.5051042   -3.6266171 
   16230   0.58566592            0    0.9764355   0.87805963   -4.5054612   -3.6274016 
   16240    0.5872087            0   0.97900767   0.88037265   -4.5081136    -3.627741 
   16250   0.59105949            0   0.98542779   0.88614594   -4.5140394   -3.6278935 
   16260    0.5970893            0   0.99548082   0.89518613   -4.5229698   -3.6277837 
   16270   0.60353589            0    1.0062287   0.90485118   -4.5323808   -3.6275296 
   16280   0.60722186            0    1.0123741   0.91037737   -4.5375046   -3.6271273 
   16290   0.60705728            0    1.0120997   0.91013062   -4.5369828   -3.6268522 
   16300    0.6055496            0     1.009586   0.90787024   -4.5348807   -3.6270105 
   16310   0.60619496            0     1.010662   0.90883779   -4.5360203   -3.6271825 
   16320   0.61029625            0    1.0174998   0.91498665    -4.542946   -3.6279594 
   16330   0.61575278            0     1.026597   0.92316735    -4.551861   -3.6286936 
   16340   0.61890075            0    1.0318454   0.92788695   -4.5583074   -3.6304205 
   16350    0.6177567            0     1.029938   0.92617174   -4.5596146   -3.6334429 
   16360   0.61264479            0    1.0214153    0.9185077   -4.5557452   -3.6372375 
   16370   0.60525083            0    1.0090879   0.90742231   -4.5494554   -3.6420331 
   16380   0.59762378            0   0.99637193   0.89598745    -4.543352   -3.6473646 
   16390   0.59043156            0   0.98438088   0.88520451   -4.5382697   -3.6530652 
   16400   0.58378164            0   0.97329399   0.87523462   -4.5336999   -3.6584653 
   16410     0.578616            0   0.96468172   0.86749003   -4.5308942   -3.6634041 
   16420   0.57533336            0   0.95920884   0.86256855   -4.5301918   -3.6676233 
   16430   0.57377831            0   0.95661621   0.86023713    -4.531464   -3.6712269 
   16440    0.5740252            0   0.95702784   0.86060728   -4.5343572   -3.6737499 
   16450   0.57517058            0   0.95893743   0.86232449   -4.5381175    -3.675793 
   16460   0.57557173            0   0.95960624   0.86292591   -4.5393133   -3.6763874 
   16470   0.57411746            0   0.95718166   0.86074561   -4.5380382   -3.6772926 
   16480   0.57117654            0   0.95227849   0.85633643   -4.5333726   -3.6770362 
   16490   0.56925349            0   0.94907234    0.8534533   -4.5290482   -3.6755949 
   16500   0.57118044            0   0.95228498   0.85634227   -4.5301074   -3.6737652 
   16510   0.57727082            0     0.962439   0.86547327   -4.5365698   -3.6710965 
   16520   0.58570451            0   0.97649985   0.87811749   -4.5454124   -3.6672949 
   16530   0.59403643            0     0.990391   0.89060911   -4.5535885   -3.6629794 
   16540   0.59936343            0   0.99927232   0.89859563   -4.5567531   -3.6581575 
   16550   0.59967746            0   0.99979586   0.89906643   -4.5528796   -3.6538132 
   16560   0.59587838            0   0.99346195   0.89337066   -4.5431324   -3.6497617 
   16570   0.59121253            0   0.98568295   0.88637539   -4.5316181   -3.6452427 
   16580   0.58990899            0   0.98350965   0.88442105    -4.525436    -3.641015 
   16590   0.59428651            0   0.99080795   0.89098405   -4.5276932   -3.6367091 
   16600   0.60162259            0    1.0030388   0.90198267   -4.5345169   -3.6325342 
   16610     0.606521            0    1.0112056    0.9093266   -4.5378124   -3.6284858 
   16620   0.60566004            0    1.0097702   0.90803582   -4.5329445   -3.6249086 
   16630   0.60011782            0    1.0005301   0.89972665   -4.5217264   -3.6219997 
   16640    0.5930801            0    0.9887966   0.88917534   -4.5083864   -3.6192111 
   16650   0.58649951            0   0.97782529   0.87930939   -4.4957751   -3.6164657 
   16660   0.58215105            0   0.97057543   0.87278996   -4.4863569    -3.613567 
   16670   0.58140932            0   0.96933881   0.87167793   -4.4821497   -3.6104718 
   16680   0.58347437            0   0.97278171   0.87477395   -4.4823586   -3.6075846 
   16690   0.58812725            0   0.98053909   0.88174978   -4.4861295   -3.6043797 
   16700   0.59540517            0     0.992673   0.89266119   -4.4938262    -3.601165 
   16710   0.60311945            0    1.0055344   0.90422684   -4.5020893   -3.5978625 
   16720   0.60827269            0     1.014126   0.91195283   -4.5070453   -3.5950925 
   16730   0.60918313            0    1.0156439    0.9133178   -4.5063561   -3.5930383 
   16740   0.60615704            0    1.0105988   0.90878095   -4.5003626   -3.5915816 
   16750   0.60169437            0    1.0031585   0.90209028    -4.492396   -3.5903057 
   16760   0.59891318            0   0.99852164   0.89792059   -4.4874875   -3.5895669 
   16770    0.5988492            0   0.99841497   0.89782466   -4.4864063   -3.5885817 
   16780   0.60017057            0     1.000618   0.89980573   -4.4876012   -3.5877955 
   16790   0.60302284            0    1.0053734     0.904082   -4.4910042   -3.5869222 
   16800   0.60939408            0    1.0159956   0.91363407   -4.4998489   -3.5862148 
   16810   0.61758421            0    1.0296504   0.92591312   -4.5118622   -3.5859491 
   16820   0.62221642            0    1.0373733   0.93285797   -4.5189113   -3.5860533 
   16830   0.62040802            0    1.0343583   0.93014672   -4.5170549   -3.5869082 
   16840   0.61457915            0    1.0246403   0.92140779   -4.5097992   -3.5883914 
   16850   0.60911826            0    1.0155358   0.91322055   -4.5034275   -3.5902069 
   16860   0.60562779            0    1.0097164   0.90798746    -4.500407   -3.5924195 
   16870   0.60303527            0    1.0053941   0.90410063   -4.4986308   -3.5945302 
   16880   0.60122529            0    1.0023765   0.90138702   -4.4981965   -3.5968095 
   16890   0.60202198            0    1.0037047   0.90258145   -4.5017312   -3.5991498 
   16900   0.60672415            0    1.0115443   0.90963119   -4.5107497   -3.6011186 
   16910   0.61411094            0    1.0238597   0.92070583   -4.5242042   -3.6034984 
   16920   0.62035502            0      1.03427   0.93006727   -4.5367159   -3.6066486 
   16930   0.62169054            0    1.0364966   0.93206953   -4.5426765   -3.6106069 
   16940   0.61844174            0    1.0310801   0.92719878   -4.5422712   -3.6150724 
   16950   0.61416291            0    1.0239463   0.92078374   -4.5407323   -3.6199485 
   16960   0.61021701            0    1.0173676   0.91486786   -4.5399631   -3.6250952 
   16970   0.60639683            0    1.0109985   0.90914044   -4.5388838   -3.6297433 
   16980   0.60230445            0    1.0041756   0.90300495   -4.5374903   -3.6344854 
   16990   0.59747201            0    0.9961189   0.89575992   -4.5344494   -3.6386894 
   17000   0.59133171            0   0.98588164   0.88655407   -4.5287032   -3.6421491 
   17010   0.58386581            0   0.97343432   0.87536081   -4.5200886   -3.6447278 
   17020   0.57708535            0   0.96212979   0.86519521   -4.5114334   -3.6462382 
   17030   0.57433378            0   0.95754231   0.86106992   -4.5085536   -3.6474836 
   17040   0.57642666            0    0.9610316   0.86420767   -4.5114347    -3.647227 
   17050   0.58067549            0   0.96811535   0.87057773   -4.5172486   -3.6466709 
   17060   0.58425593            0   0.97408475   0.87594571   -4.5215642   -3.6456184 
   17070   0.58592361            0   0.97686514   0.87844598   -4.5227831   -3.6443371 
   17080   0.58480292            0   0.97499669   0.87676577   -4.5196543   -3.6428885 
   17090   0.58083977            0   0.96838924   0.87082403   -4.5122661   -3.6414421 
   17100   0.57628317            0   0.96079238   0.86399255   -4.5033135    -3.639321 
   17110   0.57458281            0    0.9579575   0.86144328   -4.4984228   -3.6369795 
   17120   0.57659867            0   0.96131839   0.86446556   -4.4985204   -3.6340549 
   17130   0.58069026            0   0.96813997   0.87059987   -4.5012834   -3.6306835 
   17140    0.5854804            0   0.97612621   0.87778149   -4.5049248   -3.6271433 
   17150   0.58993839            0   0.98355867   0.88446513   -4.5079926   -3.6235275 
   17160   0.59299478            0   0.98865435   0.88904743   -4.5087073   -3.6196598 
   17170   0.59537238            0   0.99261835   0.89261205   -4.5084377   -3.6158256 
   17180    0.5985459            0    0.9979093   0.89736994   -4.5095774   -3.6122075 
   17190   0.60261116            0     1.004687   0.90346478   -4.5122022   -3.6087374 
   17200   0.60660913            0    1.0113525   0.90945874   -4.5152435   -3.6057848 
   17210   0.60919376            0    1.0156617   0.91333374   -4.5163708   -3.6030371 
   17220   0.60957638            0    1.0162996   0.91390739   -4.5147397   -3.6008323 
   17230   0.60815555            0    1.0139307    0.9117772   -4.5106656   -3.5988884 
   17240   0.60633439            0    1.0108944   0.90904683   -4.5063118    -3.597265 
   17250    0.6053868            0    1.0093146   0.90762615   -4.5035997   -3.5959735 
   17260   0.60524236            0    1.0090738    0.9074096    -4.501743   -3.5943334 
   17270   0.60517582            0    1.0089628   0.90730984   -4.5006097   -3.5932999 
   17280   0.60478707            0    1.0083147   0.90672702   -4.4993914   -3.5926644 
   17290   0.60389784            0    1.0068322   0.90539384   -4.4974735   -3.5920796 
   17300   0.60322465            0    1.0057098   0.90438456   -4.4956156   -3.5912311 
   17310   0.60377886            0    1.0066338   0.90521546   -4.4963342   -3.5911188 
   17320   0.60449189            0    1.0078226   0.90628446   -4.4973695    -3.591085 
   17330   0.60357765            0    1.0062984   0.90491379   -4.4958134   -3.5908996 
   17340   0.60181684            0    1.0033627    0.9022739   -4.4927761   -3.5905022 
   17350   0.60093884            0    1.0018989   0.90095755   -4.4913901   -3.5904325 
   17360   0.60004214            0    1.0004039   0.89961318    -4.490536   -3.5909228 
   17370   0.59860185            0   0.99800258   0.89745382   -4.4885632   -3.5911094 
   17380   0.59931971            0   0.99919942   0.89853008   -4.4895266   -3.5909965 
   17390   0.60351484            0    1.0061936   0.90481963   -4.4959523   -3.5911327 
   17400   0.60815459            0    1.0139291   0.91177578   -4.5028535   -3.5910777 
   17410   0.61031499            0     1.017531   0.91501475   -4.5063653   -3.5913505 
   17420   0.61021196            0    1.0173592   0.91486028    -4.507224   -3.5923637 
   17430   0.61120158            0    1.0190091   0.91634397   -4.5106548   -3.5943109 
   17440   0.61490879            0    1.0251899   0.92190201   -4.5184992   -3.5965972 
   17450   0.61774774            0    1.0299231   0.92615831    -4.525887   -3.5997286 
   17460   0.61698107            0    1.0286448   0.92500887    -4.528963   -3.6039541 
   17470    0.6130727            0    1.0221287   0.91914924   -4.5284602   -3.6093109 
   17480   0.60673645            0    1.0115648   0.90964962   -4.5253021   -3.6156524 
   17490   0.59934372            0   0.99923945   0.89856607   -4.5212323   -3.6226662 
   17500   0.59357392            0   0.98961991    0.8899157   -4.5198756   -3.6299599 
   17510   0.59083472            0   0.98505305   0.88580896   -4.5226615   -3.6368525 
   17520   0.59092825            0   0.98520899   0.88594919   -4.5286582    -3.642709 
   17530   0.59319998            0   0.98899646   0.88935507   -4.5372932   -3.6479381 
   17540   0.59591272            0    0.9935192   0.89342214   -4.5458607   -3.6524385 
   17550   0.59672471            0   0.99487298   0.89463953   -4.5512282   -3.6565887 
   17560   0.59464818            0   0.99141093   0.89152628   -4.5515773    -3.660051 
   17570   0.59046079            0   0.98442962   0.88524833   -4.5480979   -3.6628495 
   17580   0.58522732            0   0.97570427   0.87740206   -4.5429756   -3.6655735 
   17590   0.58035173            0   0.96757557   0.87009233   -4.5374741   -3.6673818 
   17600   0.57774273            0   0.96322578   0.86618079    -4.534595   -3.6684142 
   17610   0.57839659            0   0.96431591   0.86716108   -4.5359293   -3.6687682 
   17620   0.58165692            0   0.96975162   0.87204914   -4.5406177   -3.6685686 
   17630   0.58579368            0   0.97664851   0.87825117   -4.5464816   -3.6682304 
   17640    0.5892082            0   0.98234128    0.8833704   -4.5505408   -3.6671704 
   17650   0.59032393            0   0.98420144   0.88504315   -4.5504821    -3.665439 
   17660   0.58836958            0   0.98094311   0.88211309   -4.5458291    -3.663716 
   17670   0.58487457            0   0.97511615    0.8768732   -4.5385761   -3.6617029 
   17680   0.58281753            0   0.97168661   0.87378918   -4.5331543   -3.6593651 
   17690   0.58404251            0   0.97372891   0.87562573   -4.5325511   -3.6569254 
   17700   0.58788644            0   0.98013761   0.88138874    -4.534599   -3.6532103 
   17710     0.593326            0   0.98920657   0.88954401    -4.538977    -3.649433 
   17720   0.59910182            0   0.99883615   0.89820341   -4.5434084    -3.645205 
   17730   0.60282104            0    1.0050369   0.90377945   -4.5448902   -3.6411107 
   17740   0.60319388            0    1.0056585   0.90433842    -4.541315   -3.6369765 
   17750   0.60143278            0    1.0027224    0.9016981   -4.5350528   -3.6333547 
   17760   0.59988616            0    1.0001438   0.89937933   -4.5290349   -3.6296556 
   17770   0.59976212            0   0.99993701   0.89919335   -4.5258889   -3.6266956 
   17780   0.60013471            0    1.0005582   0.89975197   -4.5233131   -3.6235612 
   17790   0.59957366            0    0.9996228    0.8989108   -4.5195306   -3.6206198 
   17800    0.5981775            0   0.99729509   0.89681761   -4.5148243   -3.6180067 
   17810   0.59747077            0   0.99611682   0.89575805   -4.5109524   -3.6151943 
   17820   0.59907144            0   0.99878549   0.89815785   -4.5107673   -3.6126095 
   17830   0.60200392            0    1.0036746   0.90255438   -4.5126196   -3.6100652 
   17840   0.60307006            0    1.0054521   0.90415279   -4.5122204   -3.6080677 
   17850   0.60113668            0    1.0022287   0.90125416    -4.507409   -3.6061548 
   17860   0.59810556            0   0.99717516   0.89670976    -4.501201   -3.6044913 
   17870   0.59599069            0    0.9936492   0.89353905   -4.4967426   -3.6032035 
   17880   0.59565921            0   0.99309655   0.89304207   -4.4944288   -3.6013868 
   17890   0.59731608            0   0.99585892   0.89552614   -4.4956643   -3.6001381 
   17900   0.60083367            0    1.0017235   0.90079988   -4.4995388   -3.5987389 
   17910   0.60489942            0     1.008502   0.90689546   -4.5046216   -3.5977262 
   17920   0.60824206            0     1.014075   0.91190691   -4.5089556   -3.5970487 
   17930   0.61125894            0    1.0191048   0.91642997   -4.5128632   -3.5964333 
   17940   0.61443153            0    1.0243942   0.92118648   -4.5177825   -3.5965961 
   17950   0.61729218            0    1.0291635    0.9254753   -4.5224986   -3.5970233 
   17960    0.6188769            0    1.0318056    0.9278512   -4.5255901   -3.5977389 
   17970   0.61798513            0    1.0303188   0.92651421   -4.5252857   -3.5987715 
   17980   0.61505852            0    1.0254395   0.92212649    -4.522135   -3.6000085 
   17990   0.61124127            0    1.0190753   0.91640347   -4.5182947   -3.6018913 
   18000   0.60699705            0    1.0119993   0.91004033   -4.5137284    -3.603688 
   18010   0.60451292            0    1.0078577     0.906316   -4.5118694   -3.6055534 
   18020   0.60390335            0    1.0068414    0.9054021   -4.5126839   -3.6072818 
   18030   0.60244815            0    1.0044152   0.90322038   -4.5122707   -3.6090503 
   18040   0.60027044            0    1.0007845   0.89995545   -4.5108878   -3.6109324 
   18050   0.60130246            0    1.0025051   0.90150271   -4.5139816   -3.6124789 
   18060    0.6063454            0    1.0109128   0.90906334   -4.5229925   -3.6139292 
   18070   0.61171354            0    1.0198627   0.91711152    -4.532192   -3.6150805 
   18080   0.61339658            0    1.0226687   0.91963483   -4.5362518    -3.616617 
   18090   0.60936362            0    1.0159449   0.91358841   -4.5317611   -3.6181727 
   18100   0.60036484            0    1.0009419   0.90009699   -4.5200463   -3.6199493 
   18110   0.59118516            0   0.98563732   0.88633436   -4.5080081   -3.6216737 
   18120   0.58767207            0   0.97978021   0.88106736   -4.5043408   -3.6232734 
   18130   0.59105265            0   0.98541639   0.88613569   -4.5107539   -3.6246182 
   18140   0.59797139            0   0.99695147   0.89650861   -4.5220699   -3.6255613 
   18150     0.603994            0    1.0069925     0.905538    -4.531798     -3.62626 
   18160   0.60636164            0    1.0109399   0.90908768   -4.5363854   -3.6272977 
   18170    0.6048792            0    1.0084683   0.90686514   -4.5348749   -3.6280098 
   18180   0.60133502            0    1.0025594   0.90155153     -4.53039   -3.6288384 
   18190   0.59778978            0   0.99664868   0.89623632   -4.5262602   -3.6300239 
   18200   0.59498236            0   0.99196808    0.8920273   -4.5231217   -3.6310944 
   18210   0.59320625            0   0.98900692   0.88936448   -4.5212283   -3.6318638 
   18220   0.59296986            0    0.9886128   0.88901006   -4.5216212   -3.6326111 
   18230   0.59381526            0   0.99002227   0.89027753   -4.5238155    -3.633538 
   18240   0.59433127            0   0.99088258   0.89105116   -4.5249501   -3.6338989 
   18250   0.59410856            0   0.99051127   0.89071726   -4.5251254   -3.6344081 
   18260   0.59379304            0   0.98998523   0.89024422   -4.5245163   -3.6342721 
   18270   0.59462893            0   0.99137883   0.89149742   -4.5253404    -3.633843 
   18280   0.59701146            0   0.99535105   0.89506943   -4.5287485    -3.633679 
   18290   0.59996734            0    1.0002792   0.89950104   -4.5327741   -3.6332731 
   18300   0.60218678            0    1.0039795   0.90282852   -4.5354447   -3.6326162 
   18310   0.60260444            0    1.0046758   0.90345471   -4.5354191   -3.6319644 
   18320   0.60110456            0    1.0021752   0.90120601   -4.5331801   -3.6319741 
   18330   0.59951022            0   0.99951703   0.89881569    -4.529936   -3.6311203 
   18340   0.59957189            0   0.99961985   0.89890815    -4.529223   -3.6303148 
   18350   0.60165587            0    1.0030943   0.90203256   -4.5311129   -3.6290803 
   18360   0.60502378            0    1.0087094    0.9070819   -4.5353006   -3.6282187 
   18370   0.60752549            0    1.0128803   0.91083259   -4.5379734   -3.6271408 
   18380   0.60703688            0    1.0120657   0.91010004   -4.5361839   -3.6260838 
   18390   0.60359884            0    1.0063337   0.90494555   -4.5296768   -3.6247312 
   18400   0.59946566            0   0.99944275   0.89874889   -4.5225236   -3.6237747 
   18410   0.59696425            0   0.99527234   0.89499865   -4.5175696   -3.6225709 
   18420    0.5966187            0   0.99469623   0.89448058   -4.5156857   -3.6212052 
   18430   0.59814213            0   0.99723612   0.89676458   -4.5164426    -3.619678 
   18440   0.60003121            0    1.0003856   0.89959679   -4.5173878    -3.617791 
   18450   0.59994099            0    1.0002352   0.89946153    -4.515361   -3.6158994 
   18460   0.59730618            0   0.99584241   0.89551129   -4.5093874   -3.6138761 
   18470     0.593349            0   0.98924491   0.88957848   -4.5012859   -3.6117074 
   18480   0.58920798            0   0.98234091   0.88337007   -4.4924823   -3.6091123 
   18490   0.58608251            0   0.97713005    0.8786842   -4.4849229   -3.6062387 
   18500   0.58605626            0   0.97708629   0.87864485   -4.4815783   -3.6029334 
   18510   0.59013649            0   0.98388895   0.88476214   -4.4839533   -3.5991912 
   18520   0.59699964            0   0.99533135   0.89505171   -4.4898955   -3.5948438 
   18530   0.60527939            0    1.0091355   0.90746513   -4.4979513   -3.5904862 
   18540   0.61384481            0     1.023416   0.92030682   -4.5062984   -3.5859916 
   18550   0.62044894            0    1.0344265   0.93020807   -4.5122558   -3.5820477 
   18560   0.62340578            0    1.0393563   0.93464112   -4.5135476   -3.5789065 
   18570   0.62337615            0    1.0393069   0.93459669   -4.5110386   -3.5764419 
   18580   0.62231402            0    1.0375361    0.9330043   -4.5077715   -3.5747672 
   18590   0.62177941            0    1.0366447   0.93220278   -4.5060232   -3.5738204 
   18600   0.62119652            0    1.0356729   0.93132888   -4.5051794   -3.5738505 
   18610   0.61872251            0    1.0315482   0.92761972   -4.5019707   -3.5743509 
   18620   0.61490982            0    1.0251916   0.92190354   -4.4969406   -3.5750371 
   18630   0.61232607            0    1.0208839   0.91802986   -4.4945248    -3.576495 
   18640   0.61291755            0      1.02187   0.91891664   -4.4973506   -3.5784339 
   18650   0.61651555            0    1.0278687   0.92431093   -4.5054574   -3.5811465 
   18660    0.6205111            0    1.0345302   0.93030126   -4.5143856   -3.5840843 
   18670   0.62151884            0    1.0362103   0.93181212   -4.5197598   -3.5879477 
   18680   0.61819851            0    1.0306746   0.92683412   -4.5194875   -3.5926534 
   18690    0.6128948            0    1.0218321   0.91888253   -4.5170756   -3.5981931 
   18700   0.60978556            0    1.0166483     0.914221   -4.5180761   -3.6038551 
   18710    0.6099969            0    1.0170007   0.91453785   -4.5244617   -3.6099239 
   18720   0.61081212            0    1.0183598   0.91576007   -4.5318173   -3.6160572 
   18730   0.60927545            0    1.0157979   0.91345622   -4.5354019   -3.6219456 
   18740   0.60411586            0    1.0071957    0.9057207    -4.532927   -3.6272063 
   18750   0.59595715            0   0.99359328   0.89348876    -4.525098   -3.6316092 
   18760   0.58667994            0   0.97812611   0.87957991   -4.5151384   -3.6355585 
   18770   0.57769487            0   0.96314599   0.86610903   -4.5047976   -3.6386886 
   18780   0.57047376            0   0.95110679   0.85528278   -4.4957246   -3.6404418 
   18790   0.56709429            0   0.94547247   0.85021612   -4.4912425   -3.6410264 
   18800   0.56866711            0   0.94809471   0.85257417   -4.4937788   -3.6412047 
   18810    0.5744536            0   0.95774207   0.86124956     -4.50149   -3.6402405 
   18820    0.5822269            0    0.9707019   0.87290369   -4.5117284   -3.6388247 
   18830   0.58983848            0    0.9833921   0.88431534    -4.520861   -3.6365456 
   18840    0.5964478            0    0.9944113   0.89422436    -4.529057   -3.6348326 
   18850   0.60078918            0    1.0016493   0.90073317   -4.5336104   -3.6328772 
   18860   0.60239058            0    1.0043192   0.90313408   -4.5340799   -3.6309458 
   18870   0.60246899            0      1.00445   0.90325163   -4.5322686   -3.6290169 
   18880   0.60157602            0    1.0029612   0.90191285   -4.5291878    -3.627275 
   18890   0.60026021            0    1.0007674   0.89994013   -4.5258931    -3.625953 
   18900   0.59993546            0     1.000226   0.89945323   -4.5239713    -3.624518 
   18910   0.60137812            0    1.0026312   0.90161614   -4.5246695   -3.6230533 
   18920   0.60421014            0    1.0073528   0.90586205   -4.5278309   -3.6219688 
   18930   0.60686066            0    1.0117719   0.90983584   -4.5306078    -3.620772 
   18940   0.60701173            0    1.0120237   0.91006234   -4.5300374   -3.6199751 
   18950   0.60385864            0    1.0067668   0.90533506   -4.5241941   -3.6188591 
   18960   0.59913267            0   0.99888758   0.89824965     -4.51612   -3.6178703 
   18970   0.59510881            0   0.99217892   0.89221689    -4.509501   -3.6172841 
   18980   0.59289619            0   0.98848998   0.88889962   -4.5056091   -3.6167095 
   18990   0.59264336            0   0.98806846   0.88852056   -4.5044273   -3.6159068 
   19000   0.59303689            0   0.98872455   0.88911055    -4.504201   -3.6150904 
   19010   0.59347334            0   0.98945222   0.88976491   -4.5032752   -3.6135102 
   19020   0.59460446            0   0.99133805   0.89146074    -4.502797   -3.6113362 
   19030   0.59545652            0   0.99275862   0.89273819   -4.5019448   -3.6092066 
   19040   0.59509954            0   0.99216345   0.89220298   -4.4984473   -3.6062443 
   19050   0.59473711            0   0.99155921   0.89165962   -4.4944298   -3.6027702 
   19060   0.59758824            0   0.99631268   0.89593417   -4.4946106   -3.5986764 
   19070   0.60568042            0    1.0098041   0.90806637    -4.502447   -3.5943806 
   19080   0.61665967            0     1.028109   0.92452701   -4.5138309   -3.5893039 
   19090   0.62632322            0    1.0442203   0.93901509   -4.5226418   -3.5836267 
   19100   0.63178266            0    1.0533224   0.94720015   -4.5255098   -3.5783096 
   19110   0.63269806            0    1.0548486   0.94857257   -4.5221885   -3.5736159 
   19120   0.63035163            0    1.0509365   0.94505468   -4.5143489   -3.5692942 
   19130   0.62638894            0    1.0443299   0.93911362   -4.5049526    -3.565839 
   19140   0.62225314            0    1.0374346   0.93291302    -4.495964    -3.563051 
   19150   0.61874324            0    1.0315828    0.9276508   -4.4886985   -3.5610477 
   19160   0.61603891            0     1.027074   0.92359633   -4.4827898   -3.5591934 
   19170   0.61283049            0    1.0217249   0.91878612   -4.4766937   -3.5579076 
   19180   0.60813141            0    1.0138905   0.91174102    -4.468452   -3.5567109 
   19190   0.60500003            0    1.0086698   0.90704629    -4.463094   -3.5560478 
   19200   0.60699153            0    1.0119901   0.91003206   -4.4651365   -3.5551045 
   19210   0.61380079            0    1.0233426   0.92024083   -4.4746339   -3.5543931 
   19220   0.62283371            0    1.0384025   0.93378344   -4.4873264    -3.553543 
   19230   0.63118849            0    1.0523318   0.94630934   -4.4997476   -3.5534383 
   19240    0.6361428            0    1.0605917   0.95373709   -4.5084351    -3.554698 
   19250   0.63521756            0    1.0590491   0.95234993   -4.5093716   -3.5570217 
   19260   0.62854774            0     1.047929    0.9423502   -4.5034688   -3.5611186 
   19270   0.61966499            0    1.0331195   0.92903274   -4.4960313   -3.5669986 
   19280   0.61147395            0    1.0194632   0.91675232   -4.4905873    -3.573835 
   19290   0.60388442            0    1.0068098   0.90537372   -4.4864351   -3.5810614 
   19300   0.59676223            0   0.99493552   0.89469577   -4.4838479   -3.5891522 
   19310    0.5915088            0   0.98617689   0.88681957   -4.4832711   -3.5964515 
   19320   0.58927556            0   0.98245359   0.88347139   -4.4862322   -3.6027608 
   19330   0.59049934            0   0.98449389   0.88530613    -4.493422   -3.6081159 
   19340   0.59456596            0   0.99127386   0.89140302   -4.5041915   -3.6127885 
   19350    0.5983743            0    0.9976232   0.89711267   -4.5136871   -3.6165744 
   19360   0.60063463            0    1.0013917   0.90050147   -4.5205596   -3.6200581 
   19370   0.60286875            0    1.0051165   0.90385097   -4.5272657   -3.6234147 
   19380   0.60511094            0    1.0088547   0.90721258   -4.5331772   -3.6259646 
   19390   0.60671371            0    1.0115269   0.90961552   -4.5383847   -3.6287692 
   19400    0.6071066            0    1.0121819   0.91020457   -4.5415891   -3.6313845 
   19410   0.60518727            0    1.0089819   0.90732701   -4.5414113   -3.6340843 
   19420   0.60204803            0    1.0037481   0.90262052   -4.5394458   -3.6368253 
   19430   0.60030488            0    1.0008419   0.90000709   -4.5397411    -3.639734 
   19440    0.6003836            0    1.0009732   0.90012512   -4.5425698   -3.6424447 
   19450   0.60081281            0    1.0016888   0.90076861   -4.5460973   -3.6453287 
   19460   0.60000121            0    1.0003356   0.89955181   -4.5475616   -3.6480098 
   19470   0.59647541            0   0.99445733   0.89426576   -4.5445932   -3.6503274 
   19480   0.58969293            0   0.98314943   0.88409712   -4.5367219   -3.6526248 
   19490   0.58165654            0   0.96975098   0.87204857   -4.5264884   -3.6544398 
   19500   0.57743721            0   0.96271641   0.86572273   -4.5211546   -3.6554318 
   19510   0.58014225            0   0.96722633   0.86977827   -4.5259573    -3.656179 
   19520   0.58629656            0   0.97748692   0.87900512    -4.535155   -3.6561499 
   19530   0.59081413            0   0.98501873   0.88577809   -4.5419242   -3.6561461 
   19540   0.59153496            0    0.9862205   0.88685879   -4.5423999   -3.6555411 
   19550   0.58931278            0   0.98251564   0.88352719   -4.5380979   -3.6545707 
   19560   0.58579875            0   0.97665696   0.87825877    -4.531775   -3.6535162 
   19570   0.58237754            0   0.97095305   0.87312953   -4.5248564   -3.6517269 
   19580    0.5806279            0     0.968036   0.87050637   -4.5199839   -3.6494775 
   19590   0.58241032            0    0.9710077   0.87317867   -4.5196138   -3.6464351 
   19600   0.58795687            0   0.98025503   0.88149433   -4.5241213    -3.642627 
   19610   0.59407121            0     0.990449   0.89066126   -4.5284827   -3.6378215 
   19620   0.59818856            0   0.99731353   0.89683419   -4.5294669   -3.6326327 
   19630   0.60102985            0    1.0020506     0.901094   -4.5284271   -3.6273331 
   19640   0.60360838            0    1.0063496   0.90495987   -4.5266671   -3.6217072 
   19650   0.60589357            0    1.0101595   0.90838593   -4.5248862   -3.6165002 
   19660   0.60767834            0    1.0131351   0.91106176   -4.5226689   -3.6116071 
   19670   0.60876305            0    1.0149436   0.91268801   -4.5196778   -3.6069898 
   19680   0.61012047            0    1.0172067   0.91472311   -4.5175913   -3.6028682 
   19690   0.61386058            0    1.0234423   0.92033047    -4.519488   -3.5991576 
   19700   0.61987877            0    1.0334759   0.92935324   -4.5258699   -3.5965167 
   19710   0.62523236            0    1.0424016   0.93737962   -4.5320841   -3.5947044 
   19720   0.62695256            0    1.0452695   0.93995863   -4.5333718   -3.5934132 
   19730   0.62443981            0    1.0410802   0.93619139    -4.529409   -3.5932177 
   19740   0.61927286            0    1.0324658   0.92844483   -4.5225054   -3.5940606 
   19750   0.61258158            0    1.0213099   0.91841294   -4.5137536   -3.5953406 
   19760   0.60480471            0    1.0083441   0.90675346   -4.5031558   -3.5964023 
   19770   0.59689204            0   0.99515194   0.89489038   -4.4921703   -3.5972799 
   19780    0.5899635            0   0.98360053   0.88450278   -4.4824193   -3.5979165 
   19790   0.58467551            0   0.97478427   0.87657476   -4.4752157    -3.598641 
   19800   0.58221131            0    0.9706759    0.8728803   -4.4718969   -3.5990166 
   19810   0.58445547            0   0.97441742   0.87624486   -4.4747823   -3.5985375 
   19820   0.59069955            0   0.98482769    0.8856063   -4.4832508   -3.5976445 
   19830   0.59836514            0   0.99760793   0.89709893    -4.493916   -3.5968171 
   19840   0.60569806            0    1.0098336   0.90809282   -4.5041533   -3.5960605 
   19850   0.61235587            0    1.0209336   0.91807454   -4.5135531   -3.5954786 
   19860   0.61702527            0    1.0287185   0.92507514   -4.5205517   -3.5954765 
   19870   0.61734487            0    1.0292514   0.92555429   -4.5213763    -3.595822 
   19880   0.61458065            0    1.0246428   0.92141004   -4.5177092   -3.5962991 
   19890   0.61250548            0     1.021183   0.91829884   -4.5153136   -3.5970148 
   19900   0.61261157            0    1.0213599    0.9184579   -4.5167331   -3.5982752 
   19910   0.61429158            0    1.0241609   0.92097665   -4.5204807   -3.5995041 
   19920   0.61661429            0    1.0280333   0.92445898   -4.5259157   -3.6014567 
   19930   0.61766953            0    1.0297927   0.92604105   -4.5300461   -3.6040051 
   19940   0.61664204            0    1.0280796   0.92450058    -4.531356   -3.6068555 
   19950   0.61443297            0    1.0243966   0.92118863   -4.5308731   -3.6096845 
   19960   0.61138151            0    1.0193091   0.91661372    -4.529238   -3.6126243 
   19970    0.6072483            0    1.0124181   0.91041701   -4.5260509   -3.6156339 
   19980   0.60274055            0    1.0049027   0.90365878   -4.5226591   -3.6190003 
   19990   0.59899317            0     0.998655   0.89804051   -4.5199299   -3.6218894 
   20000    0.5959865            0   0.99364222   0.89353276   -4.5181297    -3.624597 
Loop time of 5.41537 on 8 procs for 10000 steps with 2000 atoms

Performance: 159545.870 tau/day, 1846.596 timesteps/s
84.1% CPU use with 8 MPI tasks x no OpenMP threads

MPI task timing breakdown:
Section |  min time  |  avg time  |  max time  |%varavg| %total
---------------------------------------------------------------
Pair    | 1.285      | 2.1123     | 2.9241     |  53.1 | 39.00
Neigh   | 0.029272   | 0.065771   | 0.11065    |  14.2 |  1.21
Comm    | 1.6035     | 2.4868     | 3.3522     |  51.1 | 45.92
Output  | 0.099229   | 0.11345    | 0.19659    |   9.3 |  2.09
Modify  | 0.31371    | 0.36553    | 0.40485    |   5.3 |  6.75
Other   |            | 0.2716     |            |       |  5.01

Nlocal:    250 ave 285 max 220 min
Histogram: 2 2 0 0 0 0 0 2 1 1
Nghost:    1464.5 ave 1534 max 1395 min
Histogram: 4 0 0 0 0 0 0 0 1 3
Neighs:    15751.5 ave 23051 max 9206 min
Histogram: 4 0 0 0 0 0 0 0 2 2

Total # of neighbors = 126012
Ave neighs/atom = 63.006
Neighbor list builds = 52
Dangerous builds = 0
reset_timestep  0

########## Output run ##########
fix             fx_vel2 fluid ave/chunk 1 10000 10000 cChunk vx vy vz file ./vel_after.dat	# Saves the velocity profile averaged over 10000 timesteps
fix             fx_den fluid ave/chunk 1 10000 10000 cChunk density/mass file ./den.dat		# Saves the density profile averaged over 10000 timesteps

run             10000
Per MPI rank memory allocation (min/avg/max) = 3.475 | 3.476 | 3.477 Mbytes
Step Temp c_wall_temp c_fluid_temp KinEng PotEng TotEng 
       0    0.5959865            0   0.99364222   0.89353276   -4.5181297    -3.624597 
      10   0.59329885            0   0.98916131   0.88950331   -4.5162594   -3.6267561 
      20   0.59187846            0    0.9867932   0.88737379   -4.5157946   -3.6284208 
      30   0.59153518            0   0.98622086   0.88685911   -4.5168403   -3.6299812 
      40    0.5908471            0   0.98507369   0.88582752   -4.5166232   -3.6307957 
      50   0.58893447            0   0.98188492   0.88296001   -4.5142845   -3.6313245 
      60   0.58660574            0   0.97800239   0.87946865   -4.5114096   -3.6319409 
      70   0.58485437            0   0.97508248   0.87684292   -4.5084346   -3.6315917 
      80   0.58456068            0   0.97459283    0.8764026   -4.5070363   -3.6306337 
      90   0.58647072            0   0.97777729   0.87926623   -4.5091167   -3.6298504 
     100   0.58998506            0   0.98363648    0.8845351   -4.5131066   -3.6285715 
     110   0.59376531            0     0.989939   0.89020264   -4.5170047   -3.6268021 
     120   0.59648739            0   0.99447731   0.89428372   -4.5194346   -3.6251508 
     130   0.59684934            0   0.99508076   0.89482638   -4.5183011   -3.6234747 
     140   0.59525118            0   0.99241627   0.89243033   -4.5140775   -3.6216471 
     150   0.59457989            0   0.99129708   0.89142389   -4.5114457   -3.6200218 
     160   0.59736546            0   0.99594124   0.89560016   -4.5137794   -3.6181792 
     170   0.60332846            0    1.0058829    0.9045402   -4.5206947   -3.6161545 
     180    0.6096361            0    1.0163991   0.91399692   -4.5283728   -3.6143759 
     190   0.61346108            0    1.0227762   0.91973152   -4.5327925    -3.613061 
     200   0.61453997            0     1.024575   0.92134904   -4.5334754   -3.6121264 
     210   0.61484898            0    1.0250902   0.92181233   -4.5334261   -3.6116138 
     220   0.61559501            0     1.026334   0.92293081   -4.5343292   -3.6113984 
     230   0.61621473            0    1.0273672   0.92385994   -4.5356778   -3.6118178 
     240   0.61601074            0    1.0270271    0.9235541   -4.5361036   -3.6125495 
     250   0.61396313            0    1.0236133   0.92048422   -4.5345477   -3.6140635 
     260   0.60821025            0    1.0140219   0.91185922   -4.5279959   -3.6161366 
     270   0.59906792            0   0.99877963   0.89815258   -4.5165337   -3.6183812 
     280   0.59002765            0   0.98370748   0.88459895   -4.5055935   -3.6209945 
     290   0.58457788            0    0.9746215   0.87642839   -4.5001815   -3.6237531 
     300   0.58303827            0   0.97205464   0.87412013   -4.5002626   -3.6261424 
     310   0.58319932            0   0.97232314   0.87436158   -4.5028145    -3.628453 
     320   0.58353671            0   0.97288564   0.87486742   -4.5053562   -3.6304888 
     330   0.58454375            0    0.9745646   0.87637722   -4.5089381   -3.6325609 
     340   0.58712588            0   0.97886958   0.88024847   -4.5148914   -3.6346429 
     350   0.59039452            0   0.98431913   0.88514898   -4.5224027   -3.6372537 
     360   0.59196509            0   0.98693762   0.88750366   -4.5277336   -3.6402299 
     370   0.59149591            0   0.98615539   0.88680024   -4.5303251   -3.6435249 
     380   0.59036024            0   0.98426199   0.88509759   -4.5326031   -3.6475055 
     390   0.59018498            0   0.98396978   0.88483483    -4.536923   -3.6520882 
     400   0.59198831            0   0.98697633   0.88753847   -4.5444517   -3.6569132 
     410   0.59388722            0   0.99014224   0.89038541    -4.552744   -3.6623586 
     420   0.59284653            0   0.98840718   0.88882516   -4.5563971   -3.6675719 
     430   0.58830115            0   0.98082902   0.88201049   -4.5550205   -3.6730101 
     440   0.58226279            0   0.97076172   0.87295748    -4.550904   -3.6779465 
     450    0.5769215            0   0.96185661   0.86494956    -4.547265   -3.6823155 
     460    0.5735006            0   0.95615321   0.85982077   -4.5453205   -3.6854997 
     470   0.57343916            0   0.95605077   0.85972866   -4.5476861   -3.6879574 
     480   0.57750047            0   0.96282189   0.86581758   -4.5556484   -3.6898308 
     490   0.58336898            0   0.97260599   0.87461594   -4.5653259   -3.6907099 
     500   0.58752652            0   0.97953753   0.88084913   -4.5723442   -3.6914951 
     510   0.58755386            0   0.97958312   0.88089012   -4.5729747   -3.6920846 
     520   0.58319442            0   0.97231497   0.87435423   -4.5662736   -3.6919194 
     530   0.57675729            0   0.96158283   0.86470336   -4.5560286   -3.6913253 
     540    0.5715907            0   0.95296897   0.85695735   -4.5472326   -3.6902753 
     550   0.56899071            0   0.94863421   0.85305932   -4.5415874   -3.6885281 
     560   0.56782496            0   0.94669065   0.85131157   -4.5366873   -3.6853757 
     570   0.56657341            0   0.94460404   0.84943518    -4.530793   -3.6813578 
     580   0.56554615            0   0.94289137   0.84789506   -4.5240078   -3.6761127 
     590   0.56735934            0   0.94591436   0.85061349   -4.5204497   -3.6698362 
     600   0.57335013            0   0.95590234   0.85959518    -4.522772   -3.6631768 
     610   0.58160243            0   0.96966077   0.87196744   -4.5283676   -3.6564001 
     620   0.58899552            0   0.98198669   0.88305153   -4.5324522   -3.6494006 
     630   0.59364905            0   0.98974516   0.89002833   -4.5333011   -3.6432727 
     640   0.59543707            0   0.99272618   0.89270902   -4.5309111   -3.6382021 
     650   0.59564131            0    0.9930667   0.89301523   -4.5267577   -3.6337425 
     660   0.59576392            0   0.99327112   0.89319905   -4.5230124   -3.6298134 
     670   0.59625881            0   0.99409621   0.89394102   -4.5201754   -3.6262344 
     680   0.59707357            0    0.9954546   0.89516255   -4.5183395   -3.6231769 
     690   0.59856061            0   0.99793383     0.897392   -4.5175906   -3.6201987 
     700   0.60136383            0    1.0026074   0.90159473   -4.5193163   -3.6177216 
     710   0.60528328            0     1.009142   0.90747096    -4.522716    -3.615245 
     720   0.60739363            0    1.0126604    0.9106349   -4.5240572   -3.6134223 
     730   0.60552074            0    1.0095379   0.90782698   -4.5194943   -3.6116673 
     740   0.60081722            0    1.0016961   0.90077522   -4.5112548   -3.6104795 
     750   0.59667121            0   0.99478377   0.89455931   -4.5038191   -3.6092598 
     760   0.59492104            0   0.99186585   0.89193537   -4.5000822   -3.6081469 
     770    0.5954493            0   0.99274658   0.89272736   -4.4991928   -3.6064654 
     780   0.59768647            0   0.99647644   0.89608144   -4.5007179   -3.6046365 
     790   0.60089347            0    1.0018232   0.90088954   -4.5039012   -3.6030116 
     800   0.60407738            0    1.0071315   0.90566301   -4.5067897   -3.6011267 
     810   0.60628206            0    1.0108072   0.90896838   -4.5086815   -3.5997131 
     820   0.60674945            0    1.0115864   0.90966911   -4.5077356   -3.5980665 
     830   0.60568747            0    1.0098159   0.90807694   -4.5045704   -3.5964935 
     840   0.60510976            0    1.0088527   0.90721081   -4.5025297   -3.5953189 
     850   0.60618522            0    1.0106458    0.9088232   -4.5031107   -3.5942875 
     860   0.60764418            0    1.0130782   0.91101053   -4.5045735   -3.5935629 
     870   0.60730706            0    1.0125161   0.91050511   -4.5030363   -3.5925312 
     880    0.6051054            0    1.0088455   0.90720428   -4.4991997   -3.5919955 
     890   0.60365462            0    1.0064267   0.90502919   -4.4965365   -3.5915073 
     900   0.60427153            0    1.0074552   0.90595409   -4.4970657   -3.5911116 
     910   0.60516757            0    1.0089491   0.90729748    -4.498005   -3.5907076 
     920   0.60464901            0    1.0080845   0.90652002   -4.4971145   -3.5905945 
     930   0.60319461            0    1.0056597   0.90433952   -4.4955209   -3.5911814 
     940   0.60208784            0    1.0038145   0.90268019   -4.4938254   -3.5911452 
     950   0.60178288            0    1.0033061   0.90222298   -4.4939704   -3.5917474 
     960   0.60238418            0    1.0043086   0.90312447   -4.4951584    -3.592034 
     970   0.60501896            0    1.0087013   0.90707468   -4.4998409   -3.5927662 
     980    0.6085414            0     1.014574    0.9123557   -4.5057119   -3.5933562 
     990   0.61067683            0    1.0181343   0.91555723   -4.5099063   -3.5943491 
    1000   0.61131772            0    1.0192028    0.9165181    -4.512274   -3.5957559 
    1010   0.61064601            0    1.0180829   0.91551104   -4.5130368   -3.5975258 
    1020   0.60829188            0     1.014158    0.9119816   -4.5124693   -3.6004877 
    1030    0.6045332            0    1.0078915    0.9063464   -4.5103666   -3.6040202 
    1040   0.60051971            0    1.0012001   0.90032917   -4.5082628   -3.6079336 
    1050   0.59781557            0   0.99669168   0.89627499   -4.5081946   -3.6119196 
    1060   0.59726737            0    0.9957777    0.8954531   -4.5123909   -3.6169378 
    1070   0.59823728            0   0.99739476   0.89690724    -4.518687   -3.6217798 
    1080   0.59894342            0   0.99857205   0.89796592   -4.5247072   -3.6267413 
    1090   0.59766754            0   0.99644488   0.89605306   -4.5280711    -3.632018 
    1100   0.59423285            0   0.99071848   0.89090359   -4.5279535   -3.6370499 
    1110   0.59054972            0   0.98457789   0.88538167   -4.5270544   -3.6416727 
    1120   0.58825936            0   0.98075935   0.88194785   -4.5279171   -3.6459693 
    1130   0.58749575            0   0.97948624   0.88080301   -4.5302702   -3.6494672 
    1140   0.58734453            0   0.97923412   0.88057628   -4.5332473    -3.652671 
    1150   0.58612971            0   0.97720875   0.87875497   -4.5341509   -3.6553959 
    1160   0.58341517            0   0.97268301    0.8746852   -4.5325522    -3.657867 
    1170   0.57995573            0   0.96691535   0.86949863   -4.5288062   -3.6593076 
    1180   0.57680384            0   0.96166045   0.86477316   -4.5250821   -3.6603089 
    1190   0.57583704            0   0.96004857   0.86332368   -4.5237774   -3.6604537 
    1200    0.5779235            0   0.96352717   0.86645181   -4.5265553   -3.6601035 
    1210     0.582103            0   0.97049533   0.87271793   -4.5316535   -3.6589356 
    1220   0.58754309            0   0.97956517   0.88087398   -4.5386934   -3.6578194 
    1230   0.59286242            0   0.98843368   0.88884899   -4.5442013   -3.6553523 
    1240   0.59669139            0   0.99481742   0.89458956   -4.5480027   -3.6534132 
    1250    0.5991269            0   0.99887796     0.898241   -4.5495314   -3.6512904 
    1260   0.60039048            0    1.0009846   0.90013542   -4.5488295    -3.648694 
    1270   0.60057356            0    1.0012899   0.90040991   -4.5464425   -3.6460326 
    1280   0.60015377            0      1.00059   0.89978054   -4.5428022   -3.6430217 
    1290   0.59927453            0   0.99912408   0.89846233   -4.5387931   -3.6403307 
    1300   0.59777273            0   0.99662026   0.89621077   -4.5334559   -3.6372451 
    1310   0.59712725            0    0.9955441   0.89524304   -4.5295222   -3.6342792 
    1320   0.59935322            0   0.99925528   0.89858031   -4.5295301   -3.6309498 
    1330   0.60337363            0    1.0059582   0.90460791    -4.531908   -3.6273001 
    1340     0.606507            0    1.0111822   0.90930562   -4.5330722   -3.6237666 
    1350   0.60734464            0    1.0125788   0.91056146   -4.5298646   -3.6193031 
    1360   0.60578505            0    1.0099786   0.90822324   -4.5231753   -3.6149521 
    1370   0.60257131            0    1.0046206   0.90340504   -4.5140684   -3.6106634 
    1380    0.5988334            0   0.99838863   0.89780098   -4.5037907   -3.6059897 
    1390   0.59552937            0   0.99288007    0.8928474   -4.4934077   -3.6005603 
    1400   0.59374711            0   0.98990866   0.89017536   -4.4849518   -3.5947764 
    1410   0.59468289            0   0.99146881   0.89157833   -4.4802588   -3.5886805 
    1420   0.59898171            0   0.99863589   0.89802332   -4.4796594   -3.5816361 
    1430   0.60647093            0    1.0111221   0.90925155   -4.4840711   -3.5748196 
    1440   0.61435791            0    1.0242714   0.92107609   -4.4895274   -3.5684513 
    1450   0.61820965            0    1.0306931   0.92685081   -4.4895511   -3.5627003 
    1460   0.61730795            0    1.0291898   0.92549895   -4.4834969    -3.557998 
    1470   0.61532909            0    1.0258906   0.92253214   -4.4771766   -3.5546445 
    1480   0.61467204            0    1.0247952   0.92154706   -4.4741411    -3.552594 
    1490   0.61596764            0    1.0269552   0.92348948   -4.4744985    -3.551009 
    1500   0.61969787            0    1.0331743   0.92908203   -4.4796608   -3.5505788 
    1510   0.62462361            0    1.0413866   0.93646694   -4.4868828   -3.5504158 
    1520   0.62818803            0    1.0473293   0.94181091   -4.4932673   -3.5514564 
    1530   0.62931325            0    1.0492053   0.94349789    -4.496572   -3.5530741 
    1540   0.62820362            0    1.0473553   0.94183428   -4.4969152   -3.5550809 
    1550   0.62512957            0    1.0422302   0.93722551   -4.4948848   -3.5576593 
    1560   0.62157992            0    1.0363121    0.9319037   -4.4924483   -3.5605446 
    1570   0.62015806            0    1.0339416   0.92977198   -4.4934061   -3.5636341 
    1580   0.62173449            0    1.0365698   0.93213543   -4.4995421   -3.5674067 
    1590   0.62322954            0    1.0390624   0.93437689   -4.5056589    -3.571282 
    1600   0.62147613            0    1.0361391   0.93174809   -4.5073567   -3.5756086 
    1610    0.6182661            0    1.0307873   0.92693545   -4.5072755   -3.5803401 
    1620   0.61648376            0    1.0278157   0.92426328   -4.5094639   -3.5852006 
    1630   0.61483513            0    1.0250671   0.92179156   -4.5113417   -3.5895502 
    1640   0.61201513            0    1.0203655   0.91756368   -4.5115562   -3.5939925 
    1650   0.60887065            0     1.015123   0.91284932   -4.5114257   -3.5985764 
    1660   0.60580458            0    1.0100111   0.90825252   -4.5113808   -3.6031283 
    1670   0.60233093            0    1.0042198   0.90304464   -4.5101584   -3.6071137 
    1680    0.5983987            0   0.99766388   0.89714925   -4.5081944   -3.6110451 
    1690   0.59512727            0   0.99220969   0.89224456    -4.506982   -3.6147374 
    1700   0.59340576            0   0.98933955   0.88966359   -4.5075975   -3.6179339 
    1710   0.59279793            0   0.98832615   0.88875229   -4.5088712   -3.6201189 
    1720   0.59268987            0     0.988146   0.88859029    -4.511011   -3.6224207 
    1730   0.59326681            0   0.98910789   0.88945527   -4.5136872    -3.624232 
    1740   0.59477385            0   0.99162045   0.89171469   -4.5177323   -3.6260176 
    1750   0.59698978            0   0.99531491   0.89503693   -4.5226083   -3.6275714 
    1760   0.59992734            0    1.0002125   0.89944106   -4.5284557   -3.6290147 
    1770   0.60271056            0    1.0048527   0.90361381   -4.5338735   -3.6302597 
    1780   0.60411599            0    1.0071959    0.9057209   -4.5379153   -3.6321944 
    1790   0.60434099            0     1.007571   0.90605823   -4.5398695   -3.6338113 
    1800   0.60367213            0    1.0064559   0.90505544   -4.5401674    -3.635112 
    1810   0.60197866            0    1.0036325   0.90251651   -4.5397015    -3.637185 
    1820   0.59960688            0   0.99967819   0.89896061   -4.5386643   -3.6397037 
    1830   0.59727839            0   0.99579609   0.89546963   -4.5371524   -3.6416828 
    1840    0.5947285            0   0.99154485    0.8916467   -4.5350847    -3.643438 
    1850    0.5903261            0   0.98420507   0.88504641   -4.5306426   -3.6455962 
    1860   0.58281767            0   0.97168683   0.87378938   -4.5209957   -3.6472063 
    1870   0.57385675            0   0.95674699   0.86035473   -4.5088627   -3.6485079 
    1880    0.5674078            0   0.94599515   0.85068614   -4.4997101    -3.649024 
    1890   0.56612969            0   0.94386427   0.84876994   -4.4973278   -3.6485579 
    1900   0.56957608            0   0.94961016   0.85393693   -4.5009413   -3.6470043 
    1910   0.57547977            0   0.95945293   0.86278805   -4.5076486   -3.6448605 
    1920   0.58327051            0   0.97244183   0.87446831   -4.5156112   -3.6411429 
    1930   0.59370442            0   0.98983747   0.89011135   -4.5268982   -3.6367868 
    1940    0.6049832            0    1.0086417   0.90702106   -4.5380881   -3.6310671 
    1950   0.61418615            0    1.0239851   0.92081858   -4.5459163   -3.6250977 
    1960   0.61995717            0    1.0336067   0.92947079   -4.5491564   -3.6196856 
    1970   0.62309125            0    1.0388319   0.93416956   -4.5488406   -3.6146711 
    1980   0.62534084            0    1.0425824   0.93754225   -4.5476455   -3.6101033 
    1990   0.62721816            0    1.0457124   0.94035683   -4.5464064   -3.6060496 
    2000   0.62754325            0    1.0462543   0.94084421    -4.543731   -3.6028868 
    2010   0.62519697            0    1.0423426   0.93732655   -4.5378249   -3.6004983 
    2020    0.6209702            0    1.0352956   0.93098957   -4.5299043   -3.5989148 
    2030   0.61684196            0    1.0284129   0.92480031    -4.523158   -3.5983577 
    2040   0.61339158            0    1.0226604   0.91962732   -4.5176772   -3.5980499 
    2050   0.60954416            0    1.0162458   0.91385908   -4.5117757   -3.5979166 
    2060   0.60471735            0    1.0081985   0.90662249   -4.5048398   -3.5982173 
    2070    0.6001883            0    1.0006475    0.8998323   -4.4988997   -3.5990674 
    2080   0.59667121            0   0.99478377   0.89455931   -4.4942598   -3.5997005 
    2090   0.59478106            0   0.99163248   0.89172551   -4.4920011   -3.6002756 
    2100   0.59545594            0   0.99275764   0.89273731   -4.4936159   -3.6008786 
    2110   0.59785808            0   0.99676256   0.89633873   -4.4976664   -3.6013277 
    2120   0.60059722            0    1.0013293   0.90044538   -4.5028708   -3.6024254 
    2130   0.60280787            0     1.005015    0.9037597   -4.5077687    -3.604009 
    2140   0.60363434            0    1.0063929   0.90499878   -4.5104986   -3.6054998 
    2150   0.60233481            0    1.0042263   0.90305046   -4.5105068   -3.6074564 
    2160   0.59889152            0   0.99848553   0.89788811   -4.5080351    -3.610147 
    2170   0.59480181            0   0.99166707   0.89175661   -4.5051076    -3.613351 
    2180   0.59268755            0   0.98814213   0.88858681   -4.5053104   -3.6167236 
    2190    0.5944153            0   0.99102267   0.89117714   -4.5119997   -3.6208226 
    2200   0.59957222            0   0.99962041   0.89890866   -4.5233032   -3.6243946 
    2210   0.60461896            0    1.0080344   0.90647498   -4.5350223   -3.6285473 
    2220   0.60550046            0    1.0095041   0.90779656   -4.5410125   -3.6332159 
    2230   0.60166639            0    1.0031118   0.90204833   -4.5398623    -3.637814 
    2240    0.5941504            0   0.99058102   0.89077998   -4.5334615   -3.6426815 
    2250   0.58496032            0   0.97525911   0.87700176   -4.5242704   -3.6472687 
    2260   0.57808676            0   0.96379936   0.86669658   -4.5181296    -3.651433 
    2270   0.57709261            0   0.96214189   0.86520609   -4.5198538   -3.6546477 
    2280   0.58247678            0   0.97111849   0.87327831   -4.5305872   -3.6573089 
    2290   0.59072736            0   0.98487406     0.885648   -4.5452789   -3.6596309 
    2300   0.59739476            0    0.9959901    0.8956441   -4.5571117   -3.6614676 
    2310   0.60091978            0    1.0018671   0.90092898    -4.564126    -3.663197 
    2320   0.60123775            0    1.0023972    0.9014057   -4.5663446   -3.6649389 
    2330   0.59745449            0   0.99608968   0.89573364   -4.5621536     -3.66642 
    2340   0.58936873            0   0.98260891   0.88361106   -4.5520701   -3.6684591 
    2350   0.57959778            0   0.96631856   0.86896197    -4.538597    -3.669635 
    2360     0.572129            0   0.95386645   0.85776441    -4.528049   -3.6702846 
    2370   0.56928159            0   0.94911919   0.85349543   -4.5241093   -3.6706138 
    2380   0.57044163            0   0.95105323   0.85523462   -4.5254342   -3.6701996 
    2390   0.57337172            0   0.95593835   0.85962756   -4.5280076   -3.6683801 
    2400   0.57596832            0   0.96026745   0.86352051   -4.5290274   -3.6655069 
    2410   0.57718377            0   0.96229387   0.86534276   -4.5274724   -3.6621297 
    2420    0.5785996            0   0.96465438   0.86746545   -4.5255178   -3.6580524 
    2430   0.58298851            0   0.97197167   0.87404552   -4.5269338   -3.6528883 
    2440   0.58996474            0   0.98360259   0.88450463   -4.5317555   -3.6472508 
    2450   0.59687185            0   0.99511829   0.89486012   -4.5359486   -3.6410885 
    2460   0.60163732            0    1.0030634   0.90200475    -4.537572   -3.6355672 
    2470   0.60336011            0    1.0059357   0.90458764   -4.5345242   -3.6299366 
    2480   0.60240344            0    1.0043407   0.90315335   -4.5282579   -3.6251045 
    2490   0.60084156            0    1.0017367   0.90081171   -4.5213919   -3.6205802 
    2500   0.60037662            0    1.0009615   0.90011464   -4.5170894   -3.6169748 
    2510   0.60076733            0    1.0016129   0.90070042   -4.5147047   -3.6140043 
    2520   0.60136084            0    1.0026024   0.90159024   -4.5125909   -3.6110007 
    2530   0.60208105            0    1.0038032   0.90267001   -4.5109659   -3.6082959 
    2540   0.60222698            0    1.0040465    0.9028888   -4.5094048    -3.606516 
    2550   0.60079723            0    1.0016628   0.90074525   -4.5059257   -3.6051804 
    2560   0.59854849            0   0.99791362   0.89737382   -4.5010303   -3.6036564 
    2570   0.59778107            0   0.99663416   0.89622327   -4.4986518   -3.6024285 
    2580   0.59988858            0    1.0001479   0.89938295   -4.5009465   -3.6015636 
    2590   0.60431969            0    1.0075355    0.9060263   -4.5065914   -3.6005651 
    2600   0.60925159            0    1.0157581   0.91342044   -4.5132409   -3.5998205 
    2610   0.61262695            0    1.0213855   0.91848095   -4.5173999    -3.598919 
    2620   0.61277232            0    1.0216279    0.9186989   -4.5170503   -3.5983514 
    2630   0.60970898            0    1.0165206   0.91410619   -4.5124824   -3.5983762 
    2640   0.60574455            0     1.009911   0.90816251   -4.5069003   -3.5987378 
    2650   0.60363535            0    1.0063946    0.9050003   -4.5043438   -3.5993435 
    2660   0.60474287            0     1.008241   0.90666075   -4.5065864   -3.5999257 
    2670   0.60856432            0    1.0146122   0.91239006   -4.5134444   -3.6010543 
    2680   0.61353635            0    1.0229017   0.91984438    -4.522178   -3.6023336 
    2690   0.61673864            0    1.0282406    0.9246454   -4.5285289   -3.6038835 
    2700   0.61516668            0    1.0256198   0.92228865   -4.5282237   -3.6059351 
    2710   0.60905587            0    1.0154318   0.91312702   -4.5219552   -3.6088282 
    2720   0.60279614            0    1.0049954   0.90374211   -4.5159011    -3.612159 
    2730   0.60056654            0    1.0012782   0.90039939   -4.5158127   -3.6154133 
    2740   0.60015936            0    1.0005993   0.89978892   -4.5183457   -3.6185568 
    2750   0.59749064            0   0.99614995   0.89578784   -4.5176362   -3.6218483 
    2760   0.59362916            0     0.989712   0.88999851   -4.5153538   -3.6253553 
    2770   0.59189277            0   0.98681705   0.88739523   -4.5160771   -3.6286818 
    2780   0.59310766            0   0.98884255   0.88921667   -4.5209171   -3.6317004 
    2790   0.59543879            0   0.99272905    0.8927116   -4.5274635   -3.6347519 
    2800   0.59634678            0   0.99424287    0.8940729   -4.5323418   -3.6382689 
    2810   0.59496354            0   0.99193672   0.89199909   -4.5336141    -3.641615 
    2820   0.59269792            0   0.98815942   0.88860236   -4.5337137   -3.6451113 
    2830   0.59191628            0   0.98685625   0.88743048   -4.5359548   -3.6485243 
    2840   0.59297015            0   0.98861328   0.88901049    -4.541204   -3.6521935 
    2850     0.594216            0    0.9906904   0.89087834   -4.5467095   -3.6558311 
    2860   0.59490139            0    0.9918331   0.89190591   -4.5514042   -3.6594983 
    2870   0.59417151            0   0.99061622   0.89081164   -4.5540701   -3.6632585 
    2880   0.59105559            0   0.98542128   0.88614009   -4.5536443   -3.6675042 
    2890   0.58617146            0   0.97727835   0.87881755   -4.5511678   -3.6723502 
    2900   0.58152029            0   0.96952383    0.8718443   -4.5493662   -3.6775219 
    2910   0.57808201            0   0.96379145   0.86668946   -4.5490187   -3.6823293 
    2920   0.57563866            0   0.95971783   0.86302626    -4.550926   -3.6878998 
    2930   0.57331058            0   0.95583641   0.85953589   -4.5530186   -3.6934827 
    2940   0.56967857            0   0.94978104    0.8540906   -4.5530363   -3.6989457 
    2950   0.56483493            0   0.94170562   0.84682878   -4.5502225   -3.7033937 
    2960   0.56016075            0   0.93391271     0.839821   -4.5475274   -3.7077064 
    2970   0.55664441            0   0.92805019   0.83454914    -4.546261   -3.7117119 
    2980    0.5541666            0   0.92391913   0.83083428   -4.5453654   -3.7145312 
    2990   0.55216626            0   0.92058411   0.82783526   -4.5443954   -3.7165601 
    3000   0.55042425            0    0.9176798   0.82522356   -4.5427368   -3.7175132 
    3010   0.54980905            0   0.91665413   0.82430122   -4.5417694   -3.7174681 
    3020    0.5516967            0   0.91980126   0.82713128   -4.5426145   -3.7154832 
    3030   0.55633072            0    0.9275272   0.83407884   -4.5460469   -3.7119681 
    3040   0.56262587            0   0.93802262   0.84351684   -4.5501497   -3.7066329 
    3050   0.57035681            0   0.95091182   0.85510745   -4.5542794   -3.6991719 
    3060   0.58022878            0   0.96737058     0.869908   -4.5594848   -3.6895768 
    3070   0.59074313            0   0.98490035   0.88567164   -4.5654341   -3.6797625 
    3080   0.59819206            0   0.99731937   0.89683944   -4.5674638   -3.6706244 
    3090   0.60018843            0    1.0006478    0.8998325   -4.5628374   -3.6630049 
    3100   0.59723273            0   0.99571996   0.89540117    -4.552463   -3.6570619 
    3110   0.59186691            0   0.98677394   0.88735647   -4.5394037   -3.6520473 
    3120   0.58711602            0   0.97885315    0.8802337   -4.5284462   -3.6482125 
    3130    0.5855167            0   0.97618673   0.87783591   -4.5224216   -3.6445856 
    3140   0.58828395            0   0.98080035   0.88198472   -4.5230783   -3.6410935 
    3150   0.59380614            0   0.99000707   0.89026386    -4.528052   -3.6377882 
    3160   0.59931322            0    0.9991886   0.89852035   -4.5329688   -3.6344485 
    3170   0.60360757            0    1.0063482   0.90495865   -4.5362787     -3.63132 
    3180   0.60648958            0    1.0111532    0.9092795   -4.5379534   -3.6286739 
    3190   0.60730368            0    1.0125105   0.91050004    -4.537054    -3.626554 
    3200   0.60567419            0    1.0097938   0.90805703   -4.5327348   -3.6246778 
    3210    0.6022104            0    1.0040188   0.90286395   -4.5254845   -3.6226206 
    3220   0.59874213            0   0.99823646   0.89766414   -4.5187584   -3.6210943 
    3230   0.59704511            0   0.99540715   0.89511988    -4.514737   -3.6196171 
    3240   0.59674764            0    0.9949112    0.8946739   -4.5124487   -3.6177748 
    3250   0.59640345            0   0.99433736   0.89415788   -4.5097963   -3.6156385 
    3260   0.59576817            0    0.9932782   0.89320542   -4.5064273   -3.6132219 
    3270   0.59599766            0   0.99366082    0.8935495    -4.504655   -3.6111055 
    3280   0.59827639            0   0.99745997   0.89696588   -4.5053154   -3.6083495 
    3290   0.60280761            0    1.0050145   0.90375931   -4.5098364   -3.6060771 
    3300   0.60846022            0    1.0144387   0.91223399    -4.515961   -3.6037271 
    3310   0.61214989            0    1.0205902   0.91776572   -4.5191063   -3.6013406 
    3320   0.61108759            0    1.0188191   0.91617306    -4.515584    -3.599411 
    3330   0.60657699            0    1.0112989   0.90941056   -4.5073512   -3.5979406 
    3340   0.60296652            0    1.0052795   0.90399756   -4.5003019   -3.5963043 
    3350   0.60263877            0     1.004733   0.90350618   -4.4982852    -3.594779 
    3360   0.60608313            0    1.0104755   0.90867013   -4.5018958   -3.5932256 
    3370   0.61311372            0    1.0221971   0.91921075   -4.5112049   -3.5919942 
    3380   0.62060189            0    1.0346815   0.93043738   -4.5214306   -3.5909932 
    3390   0.62439331            0    1.0410027   0.93612167   -4.5271704   -3.5910488 
    3400    0.6234735            0    1.0394692   0.93474264   -4.5262851   -3.5915424 
    3410   0.61944109            0    1.0327462   0.92869706   -4.5211768   -3.5924797 
    3420   0.61401608            0    1.0237015   0.92056361   -4.5154387   -3.5948751 
    3430   0.60763544            0    1.0130636   0.91099743   -4.5084761   -3.5974787 
    3440   0.60014527            0    1.0005758    0.8997678   -4.5002316   -3.6004638 
    3450   0.59243787            0   0.98772585   0.88821247   -4.4914554   -3.6032429 
    3460   0.58709259            0   0.97881408   0.88019856   -4.4866517   -3.6064531 
    3470   0.58662018            0   0.97802648   0.87949031   -4.4888918   -3.6094015 
    3480   0.58987034            0   0.98344521   0.88436311   -4.4965238   -3.6121607 
    3490    0.5923854            0   0.98763837    0.8881338   -4.5029732   -3.6148394 
    3500   0.59125726            0   0.98575752   0.88644245   -4.5041181   -3.6176757 
    3510   0.58853654            0   0.98122147    0.8823634   -4.5028079   -3.6204445 
    3520   0.58855017            0   0.98124419   0.88238384   -4.5056735   -3.6232897 
    3530    0.5922787            0   0.98746049   0.88797385   -4.5133302   -3.6253564 
    3540   0.59675562            0   0.99492451   0.89468587   -4.5221998   -3.6275139 
    3550   0.59920955            0   0.99901576   0.89836492   -4.5283698   -3.6300049 
    3560    0.5994885            0   0.99948082   0.89878313   -4.5313978   -3.6326147 
    3570   0.59822108            0   0.99736775   0.89688295   -4.5327926   -3.6359096 
    3580   0.59564481            0   0.99307254   0.89302048   -4.5320939   -3.6390734 
    3590   0.59275409            0   0.98825306   0.88868657   -4.5312154   -3.6425289 
    3600   0.59060772            0   0.98467458   0.88546862   -4.5319696    -3.646501 
    3610   0.58874622            0   0.98157106   0.88267777   -4.5328587   -3.6501809 
    3620   0.58696704            0   0.97860476   0.88001033   -4.5335711   -3.6535608 
    3630   0.58625268            0   0.97741377   0.87893934   -4.5360503    -3.657111 
    3640   0.58772438            0   0.97986741   0.88114577   -4.5420269   -3.6608812 
    3650   0.59037561            0   0.98428762   0.88512064   -4.5493553   -3.6642347 
    3660   0.59066646            0   0.98477252   0.88555669   -4.5532395   -3.6676828 
    3670   0.58675957            0   0.97825887   0.87969929   -4.5507621   -3.6710628 
    3680    0.5804012            0   0.96765804   0.87016649   -4.5446861   -3.6745196 
    3690   0.57460684            0   0.95799756   0.86147931    -4.538959   -3.6774797 
    3700   0.57108048            0   0.95211833   0.85619241   -4.5361101   -3.6799177 
    3710   0.57027838            0   0.95078106   0.85498987     -4.53662   -3.6816301 
    3720   0.57206731            0   0.95376359   0.85767191    -4.540412   -3.6827401 
    3730   0.57574887            0   0.95990157   0.86319149     -4.54617   -3.6829785 
    3740   0.58042944            0   0.96770513   0.87020884   -4.5531533   -3.6829445 
    3750   0.58537106            0   0.97594391   0.87761756   -4.5596886   -3.6820711 
    3760   0.58968952            0   0.98314375   0.88409202   -4.5647534   -3.6806614 
    3770   0.59196426            0   0.98693625   0.88750242   -4.5659259   -3.6784234 
    3780   0.59110371            0   0.98550152   0.88621224   -4.5617822     -3.67557 
    3790   0.58724812            0   0.97907339   0.88043174   -4.5525693   -3.6721375 
    3800   0.58233071            0   0.97087497   0.87305932   -4.5412207   -3.6681614 
    3810   0.57938059            0   0.96595647   0.86863636   -4.5313551   -3.6627187 
    3820   0.58048856            0   0.96780369   0.87029747   -4.5260713   -3.6557738 
    3830    0.5854208            0   0.97602684   0.87769214   -4.5258469   -3.6481548 
    3840   0.59160613            0   0.98633916   0.88696549   -4.5266771   -3.6397116 
    3850   0.59552727            0   0.99287657   0.89284426   -4.5248083    -3.631964 
    3860   0.59490349            0    0.9918366   0.89190906   -4.5163899   -3.6244808 
    3870   0.59047598            0   0.98445495   0.88527112   -4.5033893   -3.6181182 
    3880   0.58555394            0   0.97624882   0.87789175   -4.4907327   -3.6128409 
    3890   0.58358659            0   0.97296881    0.8749422   -4.4828517   -3.6079095 
    3900   0.58705933            0   0.97875864    0.8801487   -4.4836292   -3.6034805 
    3910   0.59663241            0   0.99471909   0.89450114   -4.4942735   -3.5997724 
    3920    0.6100776            0    1.0171352   0.91465884   -4.5108336   -3.5961747 
    3930   0.62293501            0    1.0385714   0.93393532   -4.5269669   -3.5930316 
    3940   0.63105576            0    1.0521105   0.94611035     -4.53723   -3.5911197 
    3950   0.63294049            0    1.0552527   0.94893603   -4.5390513   -3.5901153 
    3960   0.62912516            0    1.0488917    0.9432159   -4.5334599    -3.590244 
    3970   0.62082062            0    1.0350462   0.93076532   -4.5220439   -3.5912785 
    3980   0.60988921            0    1.0168211    0.9143764   -4.5069772   -3.5926008 
    3990   0.59974079            0   0.99990146   0.89916138   -4.4934741   -3.5943127 
    4000    0.5940458            0   0.99040663   0.89062316    -4.486771   -3.5961478 
    4010   0.59294131            0   0.98856521   0.88896727   -4.4871965   -3.5982293 
    4020   0.59512047            0   0.99219836   0.89223437   -4.4917397   -3.5995053 
    4030   0.59953486            0   0.99955812   0.89885264   -4.4998294   -3.6009768 
    4040   0.60411429            0     1.007193   0.90571834   -4.5079989   -3.6022805 
    4050   0.60735786            0    1.0126008   0.91058127   -4.5144095   -3.6038282 
    4060   0.60884537            0    1.0150808   0.91281143   -4.5183446   -3.6055332 
    4070   0.60893152            0    1.0152244   0.91294058   -4.5208521   -3.6079115 
    4080   0.60842679            0    1.0143829   0.91218387   -4.5227515   -3.6105676 
    4090   0.60707417            0    1.0121278   0.91015595   -4.5238067   -3.6136507 
    4100   0.60389565            0    1.0068285   0.90539055   -4.5220896   -3.6166991 
    4110   0.59905248            0   0.99875388   0.89812943    -4.518444   -3.6203146 
    4120   0.59390886            0   0.99017833   0.89041786   -4.5140389    -3.623621 
    4130   0.58954606            0   0.98290457   0.88387693   -4.5107907   -3.6269138 
    4140   0.58640913            0   0.97767461   0.87917389   -4.5094846   -3.6303107 
    4150   0.58570247            0   0.97649644   0.87811442   -4.5111625   -3.6330481 
    4160   0.58871628            0   0.98152113   0.88263288   -4.5177305   -3.6350976 
    4170   0.59531415            0   0.99252126   0.89252474   -4.5295187    -3.636994 
    4180   0.60369458            0    1.0064933    0.9050891   -4.5442432   -3.6391541 
    4190   0.61009243            0    1.0171599   0.91468107   -4.5562052   -3.6415241 
    4200   0.61086863            0     1.018454    0.9158448    -4.560379   -3.6445342 
    4210   0.60643488            0     1.011062   0.90919749    -4.556791   -3.6475935 
    4220   0.60004594            0    1.0004102   0.89961888   -4.5507962   -3.6511773 
    4230   0.59293376            0   0.98855261   0.88895594   -4.5435668   -3.6546108 
    4240   0.58493572            0   0.97521811   0.87696488   -4.5351071   -3.6581422 
    4250   0.57737435            0   0.96261162    0.8656285   -4.5266951   -3.6610666 
    4260   0.57240444            0   0.95432567   0.85817736   -4.5216564   -3.6634791 
    4270   0.57121157            0   0.95233689   0.85638894   -4.5218758   -3.6654869 
    4280   0.57331947            0   0.95585122   0.85954921    -4.526568   -3.6670188 
    4290   0.57763429            0   0.96304499    0.8660182   -4.5337068   -3.6676886 
    4300   0.58230911            0   0.97083896   0.87302694     -4.54108   -3.6680531 
    4310   0.58469389            0   0.97481492   0.87660232   -4.5437752   -3.6671729 
    4320   0.58390785            0   0.97350441   0.87542384   -4.5410885   -3.6656646 
    4330   0.58164536            0   0.96973235   0.87203181   -4.5358436   -3.6638118 
    4340   0.58001749            0   0.96701831   0.86959122   -4.5306736   -3.6610823 
    4350   0.58018463            0   0.96729698   0.86984181   -4.5265366   -3.6566948 
    4360   0.58244106            0   0.97105895   0.87322476    -4.524416   -3.6511912 
    4370   0.58739447            0   0.97931739   0.88065116   -4.5248998   -3.6442486 
    4380   0.59540006            0   0.99266449   0.89265354   -4.5285465    -3.635893 
    4390   0.60432241            0      1.00754   0.90603037   -4.5329693   -3.6269389 
    4400   0.61058658            0    1.0179838   0.91542192   -4.5337851   -3.6183632 
    4410   0.61110671            0     1.018851   0.91620173   -4.5275963   -3.6113946 
    4420   0.60561667            0    1.0096978   0.90797079   -4.5132855   -3.6053147 
    4430   0.59760199            0   0.99633559   0.89595478   -4.4969278    -3.600973 
    4440   0.59181993            0   0.98669562   0.88728603   -4.4842969   -3.5970109 
    4450   0.59121758            0   0.98569136   0.88638295   -4.4797955   -3.5934125 
    4460   0.59634588            0   0.99424137   0.89407155   -4.4839233   -3.5898518 
    4470   0.60497503            0    1.0086281   0.90700881   -4.4942226   -3.5872137 
    4480   0.61248251            0    1.0211447   0.91826441   -4.5032587   -3.5849943 
    4490   0.61620544            0    1.0273517     0.923846   -4.5072161   -3.5833701 
    4500   0.61669005            0    1.0281596   0.92457256   -4.5065131   -3.5819405 
    4510   0.61588524            0    1.0268178   0.92336595   -4.5050997   -3.5817337 
    4520    0.6158694            0    1.0267914    0.9233422   -4.5048946   -3.5815524 
    4530   0.61667635            0    1.0281368   0.92455202   -4.5065781   -3.5820261 
    4540   0.61555961            0    1.0262749   0.92287774   -4.5058335   -3.5829558 
    4550   0.60980094            0     1.016674   0.91424405   -4.4987683   -3.5845243 
    4560    0.6008473            0    1.0017462   0.90082031   -4.4869463    -3.586126 
    4570   0.59362297            0   0.98970169   0.88998924   -4.4779704   -3.5879811 
    4580   0.59057639            0   0.98462235   0.88542165   -4.4751757    -3.589754 
    4590   0.59128163            0   0.98579814   0.88647898   -4.4774322   -3.5909532 
    4600   0.59538012            0   0.99263125   0.89262365   -4.4848042   -3.5921805 
    4610   0.60346584            0    1.0061119   0.90474615   -4.4976654   -3.5929193 
    4620   0.61527798            0    1.0258054   0.92245552   -4.5164807   -3.5940252 
    4630   0.62777253            0    1.0466366   0.94118797    -4.537193    -3.596005 
    4640   0.63573436            0    1.0599108   0.95312475   -4.5517758   -3.5986511 
    4650   0.63518607            0    1.0589966   0.95230271   -4.5553438   -3.6030411 
    4660   0.62681959            0    1.0450478   0.93975928   -4.5483524   -3.6085931 
    4670    0.6142794            0    1.0241406    0.9209584   -4.5354797   -3.6145213 
    4680   0.59982306            0    1.0000386   0.89928473   -4.5202674   -3.6209827 
    4690   0.58555792            0   0.97625545   0.87789771   -4.5052161   -3.6273184 
    4700   0.57580828            0   0.96000062   0.86328056   -4.4956017   -3.6323211 
    4710   0.57456107            0   0.95792125   0.86141069   -4.4975626    -3.636152 
    4720   0.58107175            0     0.968776   0.87117182   -4.5101561   -3.6389843 
    4730   0.58966404            0   0.98310127   0.88405381   -4.5249712   -3.6409174 
    4740   0.59565979            0   0.99309751   0.89304293   -4.5356314   -3.6425885 
    4750   0.59872701            0   0.99821126   0.89764148   -4.5414441   -3.6438026 
    4760   0.60067559            0      1.00146   0.90056288   -4.5455054   -3.6449425 
    4770   0.60246137            0    1.0044373   0.90324021   -4.5493761   -3.6461359 
    4780   0.60352994            0    1.0062188   0.90484227   -4.5524832   -3.6476409 
    4790   0.60302877            0    1.0053832   0.90409088   -4.5528804   -3.6487895 
    4800   0.60050704            0     1.001179   0.90031018   -4.5498952   -3.6495851 
    4810   0.59575958            0   0.99326388   0.89319255   -4.5437991   -3.6506066 
    4820   0.59006707            0    0.9837732   0.88465805   -4.5362536   -3.6515956 
    4830   0.58700642            0   0.97867043   0.88006938   -4.5321412   -3.6520718 
    4840    0.5882421            0   0.98073058   0.88192197   -4.5347758   -3.6528538 
    4850   0.59085817            0   0.98509215   0.88584411   -4.5388406   -3.6529965 
    4860   0.59143416            0   0.98605245   0.88670767   -4.5389449   -3.6522372 
    4870   0.58947722            0   0.98278979   0.88377372    -4.535662   -3.6518883 
    4880   0.58635124            0   0.97757809    0.8790871   -4.5302792   -3.6511921 
    4890     0.582861            0   0.97175908   0.87385435   -4.5236517   -3.6497973 
    4900   0.58021524            0   0.96734801    0.8698877   -4.5176688   -3.6477811 
    4910    0.5795243            0   0.96619607   0.86885181   -4.5134137   -3.6445619 
    4920   0.58017302            0   0.96727763   0.86982441    -4.511446   -3.6416216 
    4930   0.58136409            0    0.9692634   0.87161012   -4.5093433   -3.6377332 
    4940   0.58269738            0   0.97148629   0.87360905    -4.507086    -3.633477 
    4950   0.58382979            0   0.97337426   0.87530681   -4.5042149   -3.6289081 
    4960     0.585246            0   0.97573541   0.87743007   -4.5012261    -3.623796 
    4970   0.58808563            0   0.98046971   0.88168738   -4.5001829   -3.6184955 
    4980   0.59206824            0    0.9871096   0.88765831   -4.5009627   -3.6133044 
    4990   0.59585024            0   0.99341504   0.89332848   -4.5017457   -3.6084172 
    5000   0.59836713            0   0.99761125   0.89710191   -4.5011268   -3.6040249 
    5010   0.59899004            0   0.99864979   0.89803582   -4.4988147   -3.6007788 
    5020   0.59925945            0   0.99909896   0.89843974   -4.4963922   -3.5979524 
    5030   0.60161351            0    1.0030237   0.90196906   -4.4975824   -3.5956134 
    5040   0.60605195            0    1.0104236   0.90862339   -4.5026233   -3.5939999 
    5050   0.60979817            0    1.0166694   0.91423991   -4.5068919    -3.592652 
    5060   0.61086094            0    1.0184412   0.91583327   -4.5081614   -3.5923281 
    5070    0.6106666            0    1.0181172    0.9155419   -4.5077003   -3.5921584 
    5080   0.61130964            0    1.0191893   0.91650598   -4.5088309    -3.592325 
    5090   0.61357329            0    1.0229633   0.91989976   -4.5125442   -3.5926445 
    5100   0.61756419            0     1.029617   0.92588311   -4.5195221    -3.593639 
    5110   0.62167806            0    1.0364758   0.93205083   -4.5271575   -3.5951067 
    5120   0.62340189            0    1.0393498   0.93463528    -4.531687   -3.5970517 
    5130   0.62130454            0     1.035853   0.93149083   -4.5309455   -3.5994547 
    5140   0.61527351            0     1.025798   0.92244881   -4.5251088     -3.60266 
    5150   0.60681596            0    1.0116973   0.90976883    -4.515801   -3.6060322 
    5160    0.5992661            0   0.99911003    0.8984497    -4.508013   -3.6095633 
    5170    0.5957691            0   0.99327976   0.89320682   -4.5062416   -3.6130347 
    5180   0.59622858            0   0.99404582    0.8938957   -4.5096992   -3.6158035 
    5190      0.59742            0   0.99603218   0.89568194    -4.514276    -3.618594 
    5200   0.59716212            0   0.99560223   0.89529531   -4.5165579   -3.6212625 
    5210   0.59590904            0   0.99351307   0.89341663   -4.5174561   -3.6240395 
    5220   0.59429247            0   0.99081789   0.89099299   -4.5175084   -3.6265154 
    5230   0.59258042            0   0.98796351   0.88842619   -4.5170317   -3.6286055 
    5240   0.59078514            0   0.98497038   0.88573462   -4.5163831   -3.6306485 
    5250   0.58840841            0   0.98100785   0.88217131   -4.5148793    -3.632708 
    5260   0.58542602            0   0.97603554   0.87769996   -4.5119118   -3.6342119 
    5270   0.58250651            0   0.97116807   0.87332289   -4.5082051   -3.6348822 
    5280   0.58026851            0   0.96743682   0.86996756   -4.5050249   -3.6350573 
    5290   0.58031267            0   0.96751044   0.87003377   -4.5053177   -3.6352839 
    5300   0.58502711            0   0.97537046   0.87710189   -4.5113514   -3.6342495 
    5310   0.59311129            0    0.9888486    0.8892221   -4.5227439   -3.6335218 
    5320   0.60042806            0    1.0010473   0.90019177   -4.5324784   -3.6322866 
    5330   0.60430474            0    1.0075106   0.90600388   -4.5364159   -3.6304121 
    5340   0.60437856            0    1.0076336   0.90611455   -4.5350186    -3.628904 
    5350   0.60173671            0    1.0032291   0.90215376   -4.5299466   -3.6277928 
    5360    0.5979422            0   0.99690279   0.89646484   -4.5227984   -3.6263336 
    5370    0.5938468            0   0.99007486   0.89032482   -4.5146474   -3.6243226 
    5380   0.59009984            0   0.98382784   0.88470719   -4.5067837   -3.6220765 
    5390   0.58855653            0   0.98125479   0.88239337   -4.5017215   -3.6193281 
    5400   0.59134393            0   0.98590202   0.88657239   -4.5017891   -3.6152168 
    5410   0.59737702            0   0.99596051   0.89561749   -4.5061145   -3.6104971 
    5420   0.60321906            0    1.0057005   0.90437618   -4.5098273   -3.6054511 
    5430   0.60779469            0    1.0133291   0.91123619    -4.511008   -3.5997718 
    5440   0.61163798            0    1.0197367   0.91699824   -4.5105489   -3.5935506 
    5450   0.61597882            0    1.0269739   0.92350625   -4.5108068   -3.5873006 
    5460   0.62066719            0    1.0347904   0.93053529   -4.5124283    -3.581893 
    5470   0.62417686            0    1.0406418   0.93579716   -4.5126928   -3.5768956 
    5480    0.6269072            0    1.0451939   0.93989062   -4.5124681   -3.5725775 
    5490   0.62993985            0      1.05025   0.94443731   -4.5131821   -3.5687448 
    5500   0.63285644            0    1.0551126   0.94881001   -4.5154192   -3.5666092 
    5510   0.63406823            0    1.0571329    0.9506268    -4.515759   -3.5651322 
    5520   0.63291056            0    1.0552029   0.94889116   -4.5139112     -3.56502 
    5530   0.62945523            0     1.049442   0.94371075   -4.5097568    -3.566046 
    5540   0.62314581            0    1.0389228   0.93425135   -4.5021073    -3.567856 
    5550   0.61382569            0    1.0233841   0.92027817   -4.4905211   -3.5702429 
    5560   0.60464064            0    1.0080706   0.90650748   -4.4799736   -3.5734661 
    5570   0.60014903            0    1.0005821   0.89977343   -4.4762423   -3.5764689 
    5580    0.6006371            0    1.0013958   0.90050517   -4.4802682    -3.579763 
    5590   0.60365815            0    1.0064326   0.90503448   -4.4879632   -3.5829288 
    5600   0.60671244            0    1.0115247   0.90961362   -4.4960261   -3.5864125 
    5610   0.60833449            0    1.0142291   0.91204548   -4.5020274    -3.589982 
    5620   0.60887178            0    1.0151248   0.91285102   -4.5066844   -3.5938333 
    5630   0.60881418            0    1.0150288   0.91276465    -4.511061   -3.5982963 
    5640   0.60761017            0    1.0130215   0.91095955   -4.5135568   -3.6025973 
    5650   0.60481166            0    1.0083557   0.90676388   -4.5139963   -3.6072324 
    5660   0.60196498            0    1.0036097   0.90249599   -4.5141231   -3.6116271 
    5670   0.60164057            0    1.0030688   0.90200963   -4.5182883   -3.6162787 
    5680   0.60317233            0    1.0056226   0.90430612   -4.5245456   -3.6202395 
    5690   0.60269102            0    1.0048201   0.90358452    -4.527484   -3.6238995 
    5700   0.59880269            0   0.99833743   0.89775494   -4.5249534   -3.6271985 
    5710   0.59312196            0   0.98886639    0.8892381    -4.519082   -3.6298439 
    5720   0.58732607            0   0.97920334   0.88054861   -4.5121207   -3.6315721 
    5730   0.58386248            0   0.97342878   0.87535583   -4.5082104   -3.6328546 
    5740   0.58375414            0   0.97324814   0.87519339   -4.5085213   -3.6333279 
    5750     0.584478            0   0.97445499   0.87627865   -4.5093543   -3.6330757 
    5760   0.58272582            0   0.97153371   0.87365169   -4.5061176   -3.6324659 
    5770   0.57783998            0   0.96338792   0.86632659   -4.4979322   -3.6316056 
    5780   0.57275258            0   0.95490609    0.8586993   -4.4893782   -3.6306789 
    5790   0.57164744            0   0.95306357   0.85704242   -4.4859488   -3.6289064 
    5800   0.57674823            0   0.96156773   0.86468978   -4.4911615   -3.6264717 
    5810   0.58663371            0   0.97804903   0.87951059   -4.5034915   -3.6239809 
    5820   0.59721929            0   0.99569755   0.89538102   -4.5163641   -3.6209831 
    5830   0.60495414            0    1.0085933   0.90697749    -4.524848   -3.6178705 
    5840   0.60912782            0    1.0155517   0.91323489   -4.5287366   -3.6155017 
    5850    0.6113827            0    1.0193111   0.91661551   -4.5299809   -3.6133654 
    5860   0.61288093            0     1.021809   0.91886173   -4.5305661   -3.6117044 
    5870    0.6129445            0     1.021915   0.91895705   -4.5293812   -3.6104242 
    5880   0.61141588            0    1.0193664   0.91666526   -4.5262751   -3.6096099 
    5890   0.60977707            0    1.0166342   0.91420827   -4.5230808   -3.6088725 
    5900   0.60954597            0    1.0162489   0.91386179   -4.5229267   -3.6090649 
    5910   0.61102441            0    1.0187138   0.91607835   -4.5249295   -3.6088511 
    5920   0.61278536            0    1.0216496   0.91871844   -4.5279515   -3.6092331 
    5930    0.6129839            0    1.0219807   0.91901611    -4.529002   -3.6099859 
    5940   0.61156142            0    1.0196091   0.91688346   -4.5282707   -3.6113873 
    5950   0.60948282            0    1.0161436   0.91376712   -4.5265404   -3.6127732 
    5960    0.6075152            0    1.0128631   0.91081716    -4.525975   -3.6151579 
    5970   0.60568555            0    1.0098127   0.90807406   -4.5258999   -3.6178258 
    5980   0.60378945            0    1.0066515   0.90523134   -4.5259294    -3.620698 
    5990   0.60234027            0    1.0042354   0.90305865   -4.5268752   -3.6238165 
    6000   0.60154043            0    1.0029019   0.90185949   -4.5285898   -3.6267303 
    6010   0.59940578            0   0.99934291   0.89865911   -4.5288757   -3.6302166 
    6020   0.59455697            0   0.99125887   0.89138954   -4.5250711   -3.6336816 
    6030   0.58960612            0   0.98300469   0.88396697   -4.5213447   -3.6373777 
    6040   0.58784245            0   0.98006427   0.88132279   -4.5223924   -3.6410696 
    6050   0.58940266            0   0.98266548   0.88366193   -4.5279564   -3.6442945 
    6060   0.59224894            0   0.98741088   0.88792923   -4.5351537   -3.6472245 
    6070   0.59437654            0   0.99095806   0.89111903   -4.5413018   -3.6501828 
    6080   0.59407626            0   0.99045742   0.89066884   -4.5437201   -3.6530513 
    6090   0.59120947            0   0.98567783   0.88637079   -4.5422675   -3.6558967 
    6100   0.58787115            0   0.98011212   0.88136582   -4.5397151   -3.6583493 
    6110   0.58588631            0   0.97680294   0.87839005   -4.5390456   -3.6606555 
    6120   0.58469515            0   0.97481702   0.87660421   -4.5392787   -3.6626745 
    6130   0.58319012            0    0.9723078   0.87434779   -4.5388487   -3.6645009 
    6140   0.58093814            0   0.96855325   0.87097151   -4.5366192   -3.6656477 
    6150   0.57849732            0   0.96448385    0.8673121    -4.534065   -3.6667529 
    6160   0.57779909            0   0.96331975   0.86626529   -4.5334239   -3.6671586 
    6170   0.58060921            0   0.96800485   0.87047836   -4.5374364   -3.6669581 
    6180   0.58690926            0   0.97850843   0.87992371   -4.5460519   -3.6661282 
    6190   0.59394783            0    0.9902433   0.89047629   -4.5552766   -3.6648004 
    6200   0.59833602            0   0.99755939   0.89705528   -4.5598751   -3.6628199 
    6210   0.59919515            0   0.99899175   0.89834333   -4.5588248   -3.6604815 
    6220   0.59760514            0   0.99634085   0.89595951   -4.5533689   -3.6574093 
    6230   0.59479614            0   0.99165762   0.89174811   -4.5457125   -3.6539644 
    6240   0.59168774            0   0.98647522   0.88708784   -4.5365947   -3.6495068 
    6250   0.58982793            0    0.9833745   0.88429952   -4.5285851   -3.6442856 
    6260   0.59118923            0    0.9856441   0.88634046   -4.5240397   -3.6376992 
    6270   0.59566039            0   0.99309852   0.89304385   -4.5242375   -3.6311936 
    6280   0.60083794            0    1.0017307   0.90080629   -4.5246529   -3.6238466 
    6290   0.60466931            0    1.0081184   0.90655047   -4.5234192   -3.6168688 
    6300   0.60699175            0    1.0119904   0.91003239   -4.5207624     -3.61073 
    6310   0.60813867            0    1.0139026   0.91175191   -4.5166114   -3.6048595 
    6320   0.60842461            0    1.0143793    0.9121806   -4.5123488   -3.6001682 
    6330   0.60956398            0    1.0162789   0.91388879   -4.5103368    -3.596448 
    6340   0.61356119            0    1.0229431   0.91988161   -4.5131823   -3.5933007 
    6350   0.61957843            0    1.0329752   0.92890296   -4.5196943   -3.5907913 
    6360   0.62322763            0    1.0390592   0.93437402   -4.5230874   -3.5887134 
    6370   0.62145595            0    1.0361055   0.93171783    -4.519388   -3.5876702 
    6380   0.61609638            0    1.0271699    0.9236825   -4.5110959   -3.5874134 
    6390   0.60946022            0    1.0161059   0.91373324   -4.5013578   -3.5876246 
    6400    0.6022013            0    1.0040037   0.90285029   -4.4910306   -3.5881803 
    6410   0.59608919            0   0.99381342   0.89368672   -4.4824046   -3.5887179 
    6420   0.59213012            0   0.98721277   0.88775108   -4.4771267   -3.5893756 
    6430   0.58973497            0   0.98321952   0.88416016   -4.4739147   -3.5897546 
    6440    0.5888569            0   0.98175559   0.88284371   -4.4726641   -3.5898204 
    6450   0.59083278            0   0.98504981   0.88580604   -4.4752804   -3.5894744 
    6460   0.59634868            0   0.99424605   0.89407576   -4.4827367    -3.588661 
    6470   0.60289768            0    1.0051647   0.90389435   -4.4921376   -3.5882433 
    6480   0.60712088            0    1.0122057   0.91022598   -4.4978635   -3.5876375 
    6490   0.60888456            0    1.0151461   0.91287017    -4.499912   -3.5870418 
    6500   0.61038008            0    1.0176395   0.91511233   -4.5017316   -3.5866192 
    6510   0.61273128            0    1.0215595   0.91863737   -4.5055154   -3.5868781 
    6520   0.61510569            0    1.0255182    0.9221972   -4.5090049   -3.5868077 
    6530   0.61687949            0    1.0284755   0.92485657   -4.5127672   -3.5879106 
    6540   0.61785591            0    1.0301034   0.92632048   -4.5157987   -3.5894783 
    6550   0.61844778            0    1.0310902   0.92720783   -4.5191463   -3.5919384 
    6560   0.61873478            0    1.0315687   0.92763812    -4.523098   -3.5954599 
    6570   0.61695767            0    1.0286058   0.92497379   -4.5246532   -3.5996794 
    6580   0.61266763            0    1.0214534   0.91854195   -4.5236251   -3.6050832 
    6590   0.60780595            0    1.0133479   0.91125307   -4.5224943   -3.6112412 
    6600    0.6036007            0    1.0063368   0.90494834   -4.5233113   -3.6183629 
    6610   0.59979362            0   0.99998954   0.89924059   -4.5252405   -3.6259999 
    6620   0.59622005            0    0.9940316   0.89388291   -4.5269036   -3.6330207 
    6630    0.5931103            0   0.98884694   0.88922062   -4.5284829   -3.6392623 
    6640   0.58981535            0   0.98335354   0.88428067   -4.5287496    -3.644469 
    6650   0.58613482            0   0.97721727   0.87876263    -4.527822   -3.6490593 
    6660   0.58357331            0   0.97294666   0.87492229   -4.5275883    -3.652666 
    6670   0.58195187            0   0.97024336   0.87249134   -4.5276119   -3.6551206 
    6680   0.58044656            0   0.96773368   0.87023451   -4.5269079   -3.6566734 
    6690   0.57971362            0    0.9665117   0.86913565   -4.5266291   -3.6574934 
    6700   0.57891712            0   0.96518376   0.86794149   -4.5256073   -3.6576658 
    6710   0.57718599            0   0.96229758   0.86534609   -4.5226089   -3.6572628 
    6720   0.57555107            0   0.95957181   0.86289495   -4.5192418   -3.6563468 
    6730   0.57783586            0   0.96338105   0.86632041   -4.5207644    -3.654444 
    6740   0.58657464            0   0.97795054   0.87942202   -4.5314169   -3.6519948 
    6750   0.59793746            0    0.9968949   0.89645774   -4.5462655   -3.6498078 
    6760   0.60698588            0    1.0119806   0.91002358   -4.5577344   -3.6477108 
    6770   0.61142093            0    1.0193748   0.91667282    -4.562522   -3.6458492 
    6780   0.61113626            0    1.0189002   0.91624604   -4.5607884   -3.6445423 
    6790   0.60644021            0    1.0110709   0.90920548   -4.5524685    -3.643263 
    6800   0.59864306            0   0.99807129   0.89751561    -4.539881   -3.6423654 
    6810   0.59062916            0   0.98471033   0.88550076   -4.5267052   -3.6412045 
    6820   0.58547675            0   0.97612012   0.87777602   -4.5174682   -3.6396921 
    6830   0.58498793            0   0.97530514   0.87704315   -4.5149688   -3.6379257 
    6840   0.58935186            0   0.98258079   0.88358577   -4.5196104   -3.6360246 
    6850   0.59679433            0   0.99498904   0.89474389     -4.52841   -3.6336661 
    6860   0.60384302            0    1.0067408   0.90531165   -4.5365612   -3.6312496 
    6870   0.60748703            0    1.0128162   0.91077493   -4.5395367   -3.6287618 
    6880   0.60723749            0    1.0124001    0.9104008   -4.5374626   -3.6270618 
    6890    0.6046095            0    1.0080187    0.9064608   -4.5312967   -3.6248359 
    6900   0.60200544            0    1.0036771   0.90255666   -4.5254403   -3.6228836 
    6910   0.60092637            0    1.0018781   0.90093887   -4.5219921   -3.6210533 
    6920   0.60085867            0    1.0017652   0.90083736   -4.5201098   -3.6192725 
    6930   0.60109474            0    1.0021588   0.90119129   -4.5181321   -3.6169408 
    6940   0.60149213            0    1.0028213   0.90178708   -4.5161975   -3.6144104 
    6950   0.60112125            0     1.002203   0.90123103   -4.5129214   -3.6116904 
    6960   0.60024354            0    1.0007397   0.89991513    -4.508962   -3.6090468 
    6970   0.59981733            0    1.0000291   0.89927613    -4.505167   -3.6058909 
    6980    0.5990638            0   0.99877276    0.8981464   -4.5006089   -3.6024625 
    6990   0.59803806            0   0.99706263   0.89660857   -4.4947656    -3.598157 
    7000   0.59979033            0   0.99998405   0.89923565   -4.4922148   -3.5929791 
    7010   0.60707321            0    1.0121262   0.91015451   -4.4971727   -3.5870182 
    7020   0.61837176            0    1.0309634   0.92709386   -4.5073424   -3.5802486 
    7030   0.62906569            0    1.0487926   0.94312673   -4.5168065   -3.5736798 
    7040   0.63525586            0     1.059113   0.95240734   -4.5197109   -3.5673036 
    7050   0.63617152            0    1.0606396   0.95378015   -4.5154633   -3.5616832 
    7060   0.63311319            0    1.0555407   0.94919495    -4.506138    -3.556943 
    7070   0.62842679            0    1.0477274   0.94216887   -4.4954268   -3.5532579 
    7080   0.62490655            0    1.0418584   0.93689114   -4.4874217   -3.5505306 
    7090   0.62467848            0    1.0414781   0.93654922   -4.4849267   -3.5483775 
    7100   0.62800472            0    1.0470237   0.94153608   -4.4886146   -3.5470785 
    7110   0.63247497            0    1.0544766    0.9482381   -4.4948543   -3.5466162 
    7120   0.63486648            0    1.0584638   0.95182357     -4.49917   -3.5473464 
    7130   0.63431938            0    1.0575517   0.95100332   -4.4998445   -3.5488411 
    7140   0.63219546            0    1.0540106   0.94781905   -4.4996655   -3.5518464 
    7150   0.62881096            0    1.0483679   0.94274484   -4.4988009   -3.5560561 
    7160   0.62326794            0    1.0391265   0.93443446    -4.496918   -3.5624835 
    7170   0.61609923            0    1.0271746   0.92368677   -4.4932039   -3.5695171 
    7180   0.60892849            0    1.0152194   0.91293604   -4.4909551    -3.578019 
    7190   0.60272551            0    1.0048776   0.90363623   -4.4902632    -3.586627 
    7200   0.59715129            0   0.99558419   0.89527908   -4.4897014   -3.5944223 
    7210   0.59314047            0   0.98889725   0.88926585   -4.4904151   -3.6011492 
    7220   0.59286577            0   0.98843926   0.88885401   -4.4952419   -3.6063879 
    7230   0.59495896            0   0.99192907   0.89199221   -4.5024404   -3.6104482 
    7240   0.59594834            0   0.99357859   0.89347555   -4.5069622   -3.6134867 
    7250   0.59473869            0   0.99156183   0.89166198   -4.5078429   -3.6161809 
    7260   0.59171008            0   0.98651247   0.88712134   -4.5049781   -3.6178568 
    7270   0.58698437            0   0.97863366   0.88003632   -4.4991145   -3.6190782 
    7280   0.58127919            0   0.96912186   0.87148283    -4.491048   -3.6195651 
    7290   0.57624725            0   0.96073249   0.86393869   -4.4834007    -3.619462 
    7300   0.57487727            0   0.95844842   0.86188475   -4.4803676   -3.6184828 
    7310   0.58039531            0   0.96764823   0.87015767   -4.4871784   -3.6170207 
    7320   0.59204331            0   0.98706804   0.88762094   -4.5029489    -3.615328 
    7330   0.60464235            0    1.0080734   0.90651004   -4.5200924   -3.6135824 
    7340   0.61372225            0    1.0232117   0.92012309   -4.5318825   -3.6117595 
    7350   0.61906337            0    1.0321165   0.92813075   -4.5379458    -3.609815 
    7360   0.62197393            0     1.036969   0.93249441    -4.541575   -3.6090806 
    7370    0.6224754            0    1.0378051   0.93324624   -4.5422274   -3.6089812 
    7380   0.62018049            0     1.033979    0.9298056   -4.5396336    -3.609828 
    7390    0.6152928            0    1.0258301   0.92247774   -4.5334445   -3.6109668 
    7400   0.60907374            0    1.0154616   0.91315381   -4.5254775   -3.6123237 
    7410   0.60316461            0    1.0056097   0.90429455   -4.5186185   -3.6143239 
    7420   0.59884725            0   0.99841172   0.89782174   -4.5145379   -3.6167161 
    7430   0.59623396            0   0.99405479   0.89390377   -4.5124294   -3.6185257 
    7440   0.59463868            0    0.9913951   0.89151205   -4.5124493   -3.6209373 
    7450   0.59376313            0   0.98993536   0.89019937   -4.5132429   -3.6230436 
    7460   0.59347654            0   0.98945755    0.8897697   -4.5146293   -3.6248596 
    7470   0.59265813            0   0.98809308    0.8885427    -4.515146   -3.6266033 
    7480   0.59090651            0   0.98517274   0.88591659   -4.5144337   -3.6285171 
    7490   0.58980595            0   0.98333785   0.88426656   -4.5144722   -3.6302057 
    7500   0.59082996            0   0.98504511   0.88580181   -4.5172111   -3.6314093 
    7510   0.59350723            0   0.98950872   0.88981572   -4.5227086   -3.6328929 
    7520   0.59619786            0    0.9939946   0.89384965   -4.5278107    -3.633961 
    7530   0.59853038            0   0.99788343   0.89734667   -4.5323033   -3.6349567 
    7540   0.60213273            0    1.0038893   0.90274749   -4.5389549   -3.6362074 
    7550    0.6069114            0    1.0118564   0.90991191   -4.5476962   -3.6377843 
    7560   0.60978542            0    1.0166481   0.91422079   -4.5537406   -3.6395198 
    7570   0.60825301            0    1.0140932   0.91192332   -4.5539022   -3.6419789 
    7580   0.60256387            0    1.0046082   0.90339388   -4.5481622   -3.6447683 
    7590   0.59504849            0   0.99207835   0.89212645   -4.5401289   -3.6480024 
    7600   0.58913617            0   0.98222119   0.88326241   -4.5348496   -3.6515872 
    7610   0.58686116            0   0.97842825    0.8798516   -4.5349185   -3.6550669 
    7620    0.5874975            0   0.97948917   0.88080563    -4.539676   -3.6588704 
    7630   0.58973349            0   0.98321705   0.88415794   -4.5462488   -3.6620909 
    7640   0.59211043            0   0.98717994   0.88772156   -4.5535038   -3.6657823 
    7650   0.59270267            0   0.98816734   0.88860948   -4.5581848   -3.6695753 
    7660   0.59034386            0   0.98423468   0.88507304     -4.55813    -3.673057 
    7670   0.58516235            0   0.97559595   0.87730466   -4.5541622   -3.6768576 
    7680   0.57835894            0   0.96425315   0.86710464   -4.5474864   -3.6803817 
    7690   0.57206464            0   0.95375914   0.85766791   -4.5413063   -3.6836384 
    7700   0.56815196            0   0.94723584   0.85180183   -4.5375609   -3.6857591 
    7710   0.56669802            0   0.94481179     0.849622     -4.53651    -3.686888 
    7720   0.56706977            0   0.94543159   0.85017935   -4.5377427   -3.6875633 
    7730   0.56839959            0   0.94764869   0.85217308    -4.539214   -3.6870409 
    7740   0.57023709            0   0.95071221   0.85492795   -4.5408404   -3.6859124 
    7750   0.57208505            0   0.95379317   0.85769851   -4.5412063   -3.6835078 
    7760   0.57309608            0   0.95547878   0.85921429   -4.5393078   -3.6800935 
    7770    0.5734836            0   0.95612488   0.85979529   -4.5353651   -3.6755698 
    7780   0.57502125            0   0.95868847    0.8621006   -4.5317131   -3.6696125 
    7790   0.57923973            0   0.96572161   0.86842516   -4.5310128   -3.6625876 
    7800    0.5856513            0   0.97641114   0.87803772   -4.5326234   -3.6545856 
    7810   0.59178723            0   0.98664109     0.887237    -4.533709    -3.646472 
    7820   0.59563369            0   0.99305401   0.89300382   -4.5322478    -3.639244 
    7830   0.59692726            0   0.99521067   0.89494319   -4.5278063   -3.6328632 
    7840   0.59560148            0    0.9930003   0.89295552   -4.5206335    -3.627678 
    7850   0.59244637            0   0.98774003   0.88822522   -4.5116687   -3.6234435 
    7860   0.58979166            0   0.98331403   0.88424514   -4.5038173   -3.6195722 
    7870   0.58889175            0   0.98181368   0.88289595   -4.4991695   -3.6162735 
    7880   0.58964975            0   0.98307744   0.88403239   -4.4974366   -3.6134042 
    7890   0.59140121            0   0.98599751   0.88665826   -4.4971121   -3.6104539 
    7900   0.59357351            0   0.98961922   0.88991508   -4.4980344   -3.6081193 
    7910   0.59595012            0   0.99358155   0.89347821   -4.4990392    -3.605561 
    7920   0.59832653            0   0.99754357   0.89704105   -4.4999977   -3.6029566 
    7930   0.60029916            0    1.0008324   0.89999852   -4.5007374   -3.6007389 
    7940   0.60159923            0    1.0029999   0.90194765    -4.500641   -3.5986933 
    7950   0.60345779            0    1.0060985    0.9047341   -4.5013099   -3.5965758 
    7960   0.60747536            0    1.0127967   0.91075744   -4.5052455    -3.594488 
    7970   0.61327066            0    1.0224588   0.91944603   -4.5122614   -3.5928153 
    7980   0.61876076            0     1.031612   0.92767707   -4.5189207   -3.5912437 
    7990   0.62174341            0    1.0365847    0.9321488   -4.5224781   -3.5903293 
    8000   0.62185413            0    1.0367693    0.9323148   -4.5225794   -3.5902646 
    8010     0.620711            0    1.0348635   0.93060096   -4.5213571   -3.5907561 
    8020   0.61985832            0    1.0334419   0.92932259   -4.5215034   -3.5921808 
    8030   0.61902254            0    1.0320484   0.92806955   -4.5223079   -3.5942383 
    8040   0.61817226            0    1.0306308   0.92679475   -4.5236615   -3.5968668 
    8050   0.61780101            0    1.0300119   0.92623817   -4.5266054   -3.6003672 
    8060   0.61671468            0    1.0282007   0.92460949   -4.5290927   -3.6044832 
    8070   0.61286665            0    1.0217852   0.91884032   -4.5280225   -3.6091822 
    8080   0.60550981            0    1.0095197   0.90781058   -4.5219411   -3.6141306 
    8090   0.59582429            0   0.99337177   0.89328957   -4.5125677   -3.6192781 
    8100   0.58582653            0   0.97670328   0.87830043   -4.5023708   -3.6240703 
    8110   0.57764597            0   0.96306446   0.86603571   -4.4941806   -3.6281449 
    8120   0.57417522            0   0.95727795   0.86083219   -4.4921159   -3.6312837 
    8130   0.57749166            0   0.96280719   0.86580437   -4.4994076   -3.6336032 
    8140   0.58588669            0   0.97680359   0.87839063   -4.5134365   -3.6350459 
    8150   0.59514123            0   0.99223295   0.89226548   -4.5284098   -3.6361443 
    8160   0.60114142            0    1.0022366   0.90126127   -4.5384467   -3.6371854 
    8170    0.6017432            0    1.0032399   0.90216349   -4.5406191   -3.6384557 
    8180   0.59852696            0   0.99787772   0.89734154   -4.5367001   -3.6393586 
    8190   0.59487945            0   0.99179651   0.89187301   -4.5324539   -3.6405809 
    8200   0.59341232            0   0.98935048   0.88967342   -4.5309482   -3.6412748 
    8210   0.59371922            0   0.98986215   0.89013354   -4.5323642   -3.6422307 
    8220   0.59362327            0   0.98970219   0.88998969   -4.5327311   -3.6427414 
    8230   0.59278497            0   0.98830454   0.88873286   -4.5319398   -3.6432069 
    8240   0.59101741            0   0.98535764   0.88608285   -4.5294358    -3.643353 
    8250   0.58867575            0   0.98145357   0.88257212   -4.5257665   -3.6431944 
    8260   0.58545633            0   0.97608607    0.8777454   -4.5203271   -3.6425817 
    8270   0.58171008            0   0.96984024   0.87212884    -4.513463   -3.6413342 
    8280   0.58096505            0   0.96859811   0.87101185   -4.5107031   -3.6396912 
    8290   0.58586411            0   0.97676594   0.87835677    -4.515698   -3.6373413 
    8300   0.59450607            0     0.991174   0.89131322   -4.5252595   -3.6339463 
    8310   0.60305152            0    1.0054212   0.90412499   -4.5339657   -3.6298407 
    8320   0.60878242            0    1.0149759   0.91271705   -4.5373778   -3.6246608 
    8330   0.61089698            0    1.0185013   0.91588729   -4.5342179   -3.6183306 
    8340   0.61034771            0    1.0175856   0.91506381   -4.5274068   -3.6123429 
    8350   0.60968407            0    1.0164791   0.91406884    -4.519771   -3.6057021 
    8360   0.61067634            0    1.0181334    0.9155565   -4.5148322   -3.5992757 
    8370   0.61439084            0    1.0243263   0.92112546   -4.5133665    -3.592241 
    8380   0.61845797            0    1.0311072   0.92722312   -4.5132227   -3.5859996 
    8390   0.61877582            0    1.0316371   0.92769965   -4.5079277    -3.580228 
    8400   0.61636173            0    1.0276123   0.92408033    -4.499714   -3.5756337 
    8410   0.61339294            0    1.0226626   0.91962937   -4.4914892   -3.5718598 
    8420   0.61164525            0    1.0197488   0.91700914   -4.4854431    -3.568434 
    8430   0.61183916            0    1.0200721   0.91729986   -4.4828823   -3.5655824 
    8440    0.6141724            0    1.0239622   0.92079797   -4.4841038   -3.5633058 
    8450   0.61897379            0    1.0319671   0.92799645   -4.4901774   -3.5621809 
    8460    0.6264844            0     1.044489   0.93925673   -4.5009379   -3.5616812 
    8470   0.63407516            0    1.0571445   0.95063718   -4.5122723   -3.5616352 
    8480   0.63744376            0    1.0627607   0.95568756   -4.5189869   -3.5632993 
    8490   0.63444751            0    1.0577653   0.95119543   -4.5167901   -3.5655946 
    8500   0.62605289            0    1.0437696    0.9386098   -4.5071689   -3.5685591 
    8510   0.61717484            0    1.0289679   0.92529939   -4.4973567   -3.5720573 
    8520   0.61255768            0    1.0212701   0.91837711   -4.4941718   -3.5757947 
    8530   0.61072955            0    1.0182222   0.91563627   -4.4950468   -3.5794105 
    8540   0.60938926            0    1.0159876   0.91362684   -4.4961012   -3.5824743 
    8550   0.60823165            0    1.0140576   0.91189131   -4.4975187   -3.5856274 
    8560   0.60787937            0    1.0134703   0.91136315   -4.4995467   -3.5881836 
    8570   0.60823055            0    1.0140558   0.91188965   -4.5029501   -3.5910605 
    8580   0.60854225            0    1.0145754   0.91235697   -4.5059218   -3.5935648 
    8590   0.60927889            0    1.0158036   0.91346138   -4.5094306   -3.5959692 
    8600   0.61098921            0    1.0186551   0.91602557   -4.5145039   -3.5984783 
    8610   0.61260747            0    1.0213531   0.91845175   -4.5191642   -3.6007124 
    8620   0.61151553            0    1.0195326   0.91681465   -4.5201092   -3.6032946 
    8630   0.60577592            0    1.0099634   0.90820955    -4.513375   -3.6051655 
    8640   0.59674838            0   0.99491243     0.894675   -4.5023676   -3.6076926 
    8650   0.58826363            0   0.98076647   0.88195425   -4.4913969   -3.6094426 
    8660    0.5831039            0   0.97216405   0.87421853   -4.4850111   -3.6107926 
    8670    0.5818576            0    0.9700862   0.87235001   -4.4841069   -3.6117569 
    8680   0.58423037            0   0.97404212   0.87590738   -4.4877892   -3.6118818 
    8690   0.58935213            0   0.98258124   0.88358618   -4.4952298   -3.6116436 
    8700   0.59587747            0   0.99346044    0.8933693   -4.5047107   -3.6113414 
    8710   0.60113565            0     1.002227   0.90125263   -4.5118096    -3.610557 
    8720   0.60243264            0    1.0043894   0.90319714   -4.5131858   -3.6099887 
    8730   0.59991704            0    1.0001953   0.89942562   -4.5087646   -3.6093389 
    8740   0.59662649            0   0.99470922   0.89449226   -4.5034815   -3.6089892 
    8750   0.59572361            0   0.99320391   0.89313862   -4.5018941   -3.6087555 
    8760   0.59856342            0   0.99793851    0.8973962   -4.5054958   -3.6080996 
    8770   0.60364151            0    1.0064048   0.90500954   -4.5125246    -3.607515 
    8780   0.60754666            0    1.0129156   0.91086433   -4.5177133    -3.606849 
    8790   0.60855689            0    1.0145998   0.91237891   -4.5187682   -3.6063893 
    8800   0.60734015            0    1.0125713   0.91055472   -4.5168324   -3.6062777 
    8810   0.60617875            0     1.010635    0.9088135   -4.5151645    -3.606351 
    8820   0.60688264            0    1.0118085   0.90986879   -4.5164025   -3.6065337 
    8830   0.60904432            0    1.0154125   0.91310969   -4.5200888   -3.6069791 
    8840   0.61064555            0    1.0180821   0.91551034   -4.5232527   -3.6077424 
    8850   0.61000112            0    1.0170077   0.91454417   -4.5237718   -3.6092276 
    8860   0.60782308            0    1.0133764   0.91127875   -4.5224458   -3.6111671 
    8870   0.60562507            0    1.0097119   0.90798339    -4.521395   -3.6134116 
    8880   0.60326172            0    1.0057716   0.90444014   -4.5210042   -3.6165641 
    8890   0.59953749            0   0.99956251   0.89885659   -4.5192389   -3.6203823 
    8900   0.59539627            0   0.99265817   0.89264786   -4.5172879     -3.62464 
    8910   0.59200899            0   0.98701081   0.88756947   -4.5172181   -3.6296486 
    8920   0.58990423            0   0.98350172   0.88441392   -4.5190327   -3.6346188 
    8930    0.5899901            0   0.98364488   0.88454266   -4.5248819   -3.6403392 
    8940   0.59214401            0   0.98723593   0.88777191   -4.5334366   -3.6456647 
    8950   0.59407216            0   0.99045058   0.89066268   -4.5419127     -3.65125 
    8960   0.59385609            0   0.99009034   0.89033874   -4.5470844   -3.6567456 
    8970   0.59079345            0   0.98498425   0.88574709   -4.5477486   -3.6620015 
    8980   0.58519109            0   0.97564386   0.87734774   -4.5438351   -3.6664874 
    8990   0.57813403            0   0.96387816   0.86676744   -4.5371684   -3.6704009 
    9000   0.57258311            0   0.95462354   0.85844522   -4.5315763   -3.6731311 
    9010    0.5716791            0   0.95311636   0.85708989   -4.5325227   -3.6754328 
    9020   0.57484533            0   0.95839517   0.86183686    -4.538781   -3.6769442 
    9030    0.5785278            0   0.96453467    0.8673578   -4.5449652   -3.6776074 
    9040   0.58042838            0   0.96770335   0.87020724   -4.5479932   -3.6777859 
    9050    0.5817704            0   0.96994081   0.87221927    -4.549128   -3.6769087 
    9060   0.58390917            0   0.97350661   0.87542582   -4.5512213   -3.6757955 
    9070   0.58631754            0    0.9775219   0.87903657   -4.5532284   -3.6741918 
    9080   0.58930591            0   0.98250419   0.88351689   -4.5557316   -3.6722147 
    9090   0.59269429            0   0.98815336   0.88859691   -4.5586293   -3.6700324 
    9100   0.59467422            0   0.99145435   0.89156532   -4.5594438   -3.6678784 
    9110   0.59353866            0   0.98956112   0.88986283   -4.5549944   -3.6651315 
    9120   0.58946424            0   0.98276815   0.88375426   -4.5459483    -3.662194 
    9130   0.58445285            0   0.97441305   0.87624094    -4.534959   -3.6587181 
    9140   0.58109565            0   0.96881584   0.87120765   -4.5267024   -3.6554948 
    9150   0.58139721            0   0.96931862   0.87165977   -4.5233356   -3.6516758 
    9160   0.58547424            0   0.97611594   0.87777226   -4.5249504   -3.6471781 
    9170   0.59205341            0   0.98708487   0.88763607    -4.530291    -3.642655 
    9180   0.59990218            0    1.0001705   0.89940335   -4.5370385   -3.6376352 
    9190   0.60692371            0     1.011877   0.90993038   -4.5438518   -3.6339214 
    9200   0.61036939            0    1.0176217   0.91509631   -4.5450996   -3.6300033 
    9210   0.60984848            0    1.0167532   0.91431534   -4.5413262   -3.6270109 
    9220   0.60536763            0    1.0092826   0.90759742   -4.5325777   -3.6249803 
    9230    0.5976536            0   0.99642165   0.89603217   -4.5191354   -3.6231033 
    9240   0.59023404            0   0.98405158   0.88490839   -4.5068664    -3.621958 
    9250   0.58711592            0   0.97885298   0.88023354   -4.5004401   -3.6202066 
    9260   0.58980715            0   0.98333985   0.88426836   -4.5029607   -3.6186924 
    9270   0.59492847            0   0.99187824   0.89194651   -4.5091055    -3.617159 
    9280   0.59853656            0   0.99789374   0.89735594   -4.5132722   -3.6159163 
    9290   0.60037949            0    1.0009663   0.90011895   -4.5150485   -3.6149295 
    9300   0.60263286            0    1.0047232   0.90349731   -4.5175203    -3.614023 
    9310   0.60625925            0    1.0107692   0.90893418   -4.5216709   -3.6127367 
    9320    0.6092946            0    1.0158298   0.91348493   -4.5257647   -3.6122798 
    9330   0.60867586            0    1.0147982   0.91255729   -4.5250169   -3.6124596 
    9340   0.60334906            0    1.0059172   0.90457108   -4.5169631    -3.612392 
    9350   0.59523968            0   0.99239709   0.89241308   -4.5048683   -3.6124552 
    9360   0.58734378            0   0.97923288   0.88057516   -4.4931243   -3.6125492 
    9370   0.58237562            0   0.97094984   0.87312664   -4.4853461   -3.6122195 
    9380   0.58105354            0   0.96874565   0.87114452   -4.4825823   -3.6114378 
    9390   0.58352086            0   0.97285922   0.87484365   -4.4849826    -3.610139 
    9400   0.58963839            0   0.98305851   0.88401536   -4.4922209   -3.6082055 
    9410   0.59667384            0   0.99478816   0.89456325   -4.5007119   -3.6061487 
    9420   0.60173569            0    1.0032274   0.90215223   -4.5061014   -3.6039492 
    9430   0.60503222            0    1.0087234   0.90709456   -4.5091546   -3.6020601 
    9440   0.60830897            0    1.0141865   0.91200722   -4.5115399   -3.5995327 
    9450   0.61177685            0    1.0199683   0.91720645   -4.5150448   -3.5978384 
    9460   0.61475757            0    1.0249378   0.92167529   -4.5178081   -3.5961328 
    9470   0.61659952            0    1.0280087   0.92443683   -4.5195909    -3.595154 
    9480   0.61662101            0    1.0280445   0.92446905    -4.519012    -3.594543 
    9490   0.61496806            0    1.0252887   0.92199086   -4.5160655   -3.5940746 
    9500   0.61190439            0    1.0201809   0.91739765   -4.5117468   -3.5943492 
    9510   0.60843979            0    1.0144046   0.91220336   -4.5071168   -3.5949135 
    9520   0.60632843            0    1.0108845   0.90903791   -4.5047279     -3.59569 
    9530   0.60507274            0     1.008791    0.9071553   -4.5045184   -3.5973631 
    9540   0.60447659            0    1.0077971   0.90626153   -4.5052603   -3.5989987 
    9550   0.60567912            0     1.009802   0.90806442   -4.5088336   -3.6007692 
    9560   0.60760234            0    1.0130084   0.91094781   -4.5142206   -3.6032728 
    9570   0.60709233            0    1.0121581   0.91018318   -4.5165455   -3.6063624 
    9580   0.60271986            0    1.0048682   0.90362775   -4.5136251   -3.6099974 
    9590   0.59708831            0   0.99547917   0.89518465   -4.5094932   -3.6143085 
    9600    0.5940915            0   0.99048282   0.89069168   -4.5098466   -3.6191549 
    9610   0.59437241            0   0.99095116   0.89111283   -4.5154381   -3.6243252 
    9620   0.59559867            0   0.99299562   0.89295131   -4.5231356   -3.6301843 
    9630   0.59507909            0   0.99212937   0.89217233   -4.5280681   -3.6358957 
    9640   0.59073453            0     0.984886   0.88565874   -4.5276204   -3.6419617 
    9650   0.58309877            0   0.97215549   0.87421082   -4.5215648    -3.647354 
    9660   0.57590441            0   0.96016089   0.86342468   -4.5156615   -3.6522369 
    9670   0.57264159            0   0.95472106   0.85853291   -4.5146415   -3.6561086 
    9680   0.57316057            0   0.95558631   0.85931099   -4.5186101   -3.6592992 
    9690   0.57497222            0   0.95860672    0.8620271   -4.5233658   -3.6613387 
    9700   0.57629885            0   0.96081852   0.86401606    -4.526608    -3.662592 
    9710   0.57742822            0   0.96270143   0.86570926   -4.5290854   -3.6633761 
    9720   0.57923946            0   0.96572116   0.86842476   -4.5317707    -3.663346 
    9730   0.58094301            0   0.96856136    0.8709788   -4.5337502   -3.6627714 
    9740   0.58151379            0   0.96951299   0.87183455   -4.5333373   -3.6615027 
    9750   0.58124981            0   0.96907287   0.87143878   -4.5312393   -3.6598006 
    9760   0.58006192            0   0.96709239   0.86965783   -4.5272022   -3.6575444 
    9770   0.57805239            0   0.96374206   0.86664505   -4.5216814   -3.6550364 
    9780   0.57745663            0   0.96274879   0.86575185   -4.5178748   -3.6521229 
    9790   0.57913779            0   0.96555166   0.86827233   -4.5162853    -3.648013 
    9800   0.58115158            0    0.9689091    0.8712915   -4.5148536    -3.643562 
    9810    0.5826626            0   0.97142831   0.87355691   -4.5123033   -3.6387464 
    9820   0.58508736            0   0.97547092   0.87719223   -4.5110202   -3.6338279 
    9830   0.58984246            0   0.98339873   0.88432131   -4.5133675   -3.6290462 
    9840   0.59713515            0   0.99555727   0.89525488   -4.5195071   -3.6242522 
    9850   0.60602377            0    1.0103766   0.90858113   -4.5283886   -3.6198075 
    9860   0.61527115            0     1.025794   0.92244527   -4.5388694   -3.6164242 
    9870   0.62318671            0     1.038991   0.93431267   -4.5485561   -3.6142434 
    9880   0.62800745            0    1.0470283   0.94154016   -4.5548803   -3.6133401 
    9890   0.62907418            0    1.0488067   0.94313946   -4.5563892   -3.6132497 
    9900   0.62621658            0    1.0440425   0.93885521   -4.5526997   -3.6138445 
    9910   0.62020254            0    1.0340157   0.92983865   -4.5450041   -3.6151654 
    9920   0.61333146            0    1.0225601   0.91953719   -4.5364835   -3.6169463 
    9930   0.60751477            0    1.0128624   0.91081652   -4.5293561   -3.6185396 
    9940   0.60283378            0    1.0050582   0.90379855   -4.5243027   -3.6205042 
    9950   0.59825809            0   0.99742946   0.89693844    -4.519344   -3.6224055 
    9960   0.59491543            0   0.99185651   0.89192696   -4.5160178   -3.6240908 
    9970   0.59518298            0   0.99230257   0.89232809   -4.5177111    -3.625383 
    9980   0.59832116            0   0.99753462   0.89703301   -4.5234359   -3.6264029 
    9990   0.60032871            0    1.0008817   0.90004282   -4.5275635   -3.6275207 
   10000   0.59868345            0   0.99813862   0.89757616   -4.5258428   -3.6282666 
Loop time of 6.64625 on 8 procs for 10000 steps with 2000 atoms

Performance: 129998.183 tau/day, 1504.609 timesteps/s
83.5% CPU use with 8 MPI tasks x no OpenMP threads

MPI task timing breakdown:
Section |  min time  |  avg time  |  max time  |%varavg| %total
---------------------------------------------------------------
Pair    | 1.4114     | 2.3488     | 3.4234     |  58.9 | 35.34
Neigh   | 0.032179   | 0.072561   | 0.11657    |  14.9 |  1.09
Comm    | 1.955      | 3.0165     | 3.9204     |  49.7 | 45.39
Output  | 0.16655    | 0.18319    | 0.2485     |   5.9 |  2.76
Modify  | 0.55162    | 0.65589    | 0.74861    |  10.7 |  9.87
Other   |            | 0.3694     |            |       |  5.56

Nlocal:    250 ave 279 max 222 min
Histogram: 3 1 0 0 0 0 0 1 0 3
Nghost:    1464.5 ave 1539 max 1394 min
Histogram: 4 0 0 0 0 0 0 0 0 4
Neighs:    15749 ave 22354 max 9457 min
Histogram: 4 0 0 0 0 0 0 0 1 3

Total # of neighbors = 125992
Ave neighs/atom = 62.996
Neighbor list builds = 52
Dangerous builds = 0
Total wall time: 0:00:17
